[TITLE]
Provenance: SWMMEnablement/1729-SWMM5-Models/Pumps/46_pumps.inp @ 3725238554579ec6cd85e732096156e66d78918d.
Scenario Run :  ORIGINAL_SYS

[OPTIONS]
;Option and Files Scenario Set: ORIGINAL
FLOW_UNITS	GPM
INFILTRATION	HORTON
FLOW_ROUTING	DYNWAVE
ALLOW_PONDING	NO
DRY_DAYS	5.000000
SKIP_STEADY_STATE 	NO
IGNORE_RAINFALL	NO
IGNORE_SNOWMELT	NO
IGNORE_GROUNDWATER	NO
IGNORE_QUALITY	NO
FORCE_MAIN_EQUATION	H-W
LINK_OFFSETS	DEPTH
MIN_SLOPE	0.000000
START_DATE	01/01/2002
START_TIME	00:00
END_DATE	01/03/2002
END_TIME	00:00
REPORT_START_DATE	01/01/2002
REPORT_START_TIME	00:00
SWEEP_START	01/01
SWEEP_END	12/31
WET_STEP	01:00:00
DRY_STEP	23:00:00
ROUTING_STEP	0.25
REPORT_STEP	00:15:00
INERTIAL_DAMPING	NONE
VARIABLE_STEP	0.0000
MINIMUM_STEP	0.000000
LENGTHENING_STEP	10
MIN_SURFAREA	0.000000
NORMAL_FLOW_LIMITED	BOTH
MAX_TRIALS	100
HEAD_TOLERANCE	0.001000

[FILES]

[RAINGAGES]
;  NWS Sarasota Bradenton
RAINGAGE-3	VOLUME	1.000000	1.000000	TIMESERIES	TIMESERI-1		

[HYDROGRAPHS]

[TEMPERATURE]

[ADJUSTMENTS]

[SUBCATCHMENTS]

[SUBAREAS]

[INFILTRATION]

[AQUIFERS]

[GROUNDWATER]

[GWF]

[SNOWPACKS]

[JUNCTIONS]
;   pressure
J-1002-OUT	7.500000	0.500000	0.000000	1000.000000	1000.000000
;   pressure
J-1003-OUT	11.600000	0.500000	0.000000	1000.000000	1000.000000
;   pressure
J-147-OUT	9.600000	0.500000	0.000000	1000.000000	1000.000000
;   pressure
J-220-OUT	6.000000	0.500000	0.000000	1000.000000	1000.000000
;   pressure
J-221-OUT	8.000000	0.500000	0.000000	1000.000000	1000.000000
;   pressure
J-222-OUT	5.000000	0.500000	0.000000	1000.000000	1000.000000
;   pressure
J-223-OUT	10.000000	0.500000	0.000000	1000.000000	1000.000000
;   pressure
J-224-OUT	11.000000	0.500000	0.000000	1000.000000	1000.000000
;   pressure
J-225-OUT	5.200000	0.500000	0.000000	1000.000000	1000.000000
;   pressure
J-226-OUT	5.000000	0.500000	0.000000	1000.000000	1000.000000
;   pressure
J-227-OUT	8.300000	0.500000	0.000000	1000.000000	1000.000000
;   pressure
J-228-OUT	19.600000	0.500000	0.000000	1000.000000	1000.000000
;   pressure
J-229-OUT	5.000000	0.500000	0.000000	1000.000000	1000.000000
;   pressure
J-230-OUT	4.500000	0.500000	0.000000	1000.000000	1000.000000
;   pressure
J-231-OUT	4.500000	0.500000	0.000000	1000.000000	1000.000000
;   pressure
J-232-OUT	7.000000	0.500000	0.000000	1000.000000	1000.000000
;   pressure
J-242-OUT	12.300000	0.500000	0.000000	1000.000000	1000.000000
;   pressure
J-243-OUT	17.700000	0.500000	0.000000	1000.000000	1000.000000
;   pressure
J-246-OUT	17.900000	0.500000	0.000000	1000.000000	1000.000000
;   pressure
J-247-OUT	7.000000	0.500000	0.000000	1000.000000	1000.000000
;   pressure
J-250-OUT	11.500000	0.500000	0.000000	1000.000000	1000.000000
;   pressure
J-251-OUT	8.500000	0.500000	0.000000	1000.000000	1000.000000
;   pressure
J-258-OUT	8.400000	0.500000	0.000000	1000.000000	1000.000000
;   pressure
JN_824_1	9.000000	0.500000	0.000000	1000.000000	1000.000000
;   pressure
JN_824_10	13.900000	0.500000	0.000000	1000.000000	1000.000000
;   pressure
JN_824_2	8.500000	0.500000	0.000000	1000.000000	1000.000000
;   pressure
JN_824_20	9.200000	0.500000	0.000000	1000.000000	1000.000000
;   pressure
JN_824_21	13.800000	0.500000	0.000000	1000.000000	1000.000000
;   pressure
JN_824_22	15.000000	0.500000	0.000000	1000.000000	1000.000000
;   pressure
JN_824_25	15.000000	0.500000	0.000000	1000.000000	1000.000000
;   pressure
JN_824_26	15.500000	0.500000	0.000000	1000.000000	1000.000000
;   pressure
JN_824_8	9.500000	0.500000	0.000000	1000.000000	1000.000000
;   pressure
JN_825_10	5.000000	0.500000	0.000000	1000.000000	1000.000000
;   pressure
JN_825_6	10.700000	0.500000	0.000000	1000.000000	1000.000000
;   pressure
JN_825_7	10.000000	0.500000	0.000000	1000.000000	1000.000000
;   pressure
JN_919_22	11.000000	0.500000	0.000000	1000.000000	1000.000000
;   pressure
JN_919_26	10.600000	0.500000	0.000000	1000.000000	1000.000000
;   pressure
JN_919_3	5.000000	0.500000	0.000000	1000.000000	1000.000000
;   pressure
JN_919_9	8.000000	0.500000	0.000000	1000.000000	1000.000000
;   pressure
JN_920_1	6.000000	0.500000	0.000000	1000.000000	1000.000000
;   pressure
JN_920_12	9.300000	0.500000	0.000000	1000.000000	1000.000000
;   pressure
JN_920_23	5.000000	0.500000	0.000000	1000.000000	1000.000000
;   pressure
JN_929_19	15.000000	0.500000	0.000000	1000.000000	1000.000000
;   pressure
JN_929_40	18.500000	0.500000	0.000000	1000.000000	1000.000000
;   pressure
JN_929_43	8.600000	0.500000	0.000000	1000.000000	1000.000000
;   pressure
JN_929_5	15.000000	0.500000	0.000000	1000.000000	1000.000000
;   pressure
JN_930_16	5.300000	0.500000	0.000000	1000.000000	1000.000000
;   pressure
JN_930_19	10.000000	0.500000	0.000000	1000.000000	1000.000000
;   pressure
JN_930_24	6.600000	0.500000	0.000000	1000.000000	1000.000000
;   pressure
JN_930_28	8.900000	0.500000	0.000000	1000.000000	1000.000000
;   pressure
JN_930_38	10.200000	0.500000	0.000000	1000.000000	1000.000000
;   pressure
JX-6929	5.000000	0.500000	0.000000	1000.000000	1000.000000
;   manhole
MH_813_1	-1.500000	9.500000	0.000000	0.000000	0.000000
;   manhole
MH_813_2	-2.000000	9.400000	0.000000	0.000000	0.000000
;   manhole
MH_813_3	-2.500000	10.200000	0.000000	0.000000	0.000000
;   manhole
MH_824_1	1.900000	4.400000	0.000000	0.000000	0.000000
;   manhole
MH_824_10	-3.900000	11.600000	0.000000	0.000000	0.000000
;   manhole
MH_824_100	13.200000	6.700000	0.000000	0.000000	0.000000
;   manhole
MH_824_101	11.200000	8.400000	0.000000	0.000000	0.000000
;   manhole
MH_824_102	9.200000	10.900000	0.000000	0.000000	0.000000
;   manhole
MH_824_103	17.200000	3.600000	0.000000	0.000000	0.000000
;   manhole
MH_824_104	8.600000	10.300000	0.000000	0.000000	0.000000
;   manhole
MH_824_105	6.800000	10.300000	0.000000	0.000000	0.000000
;   manhole
MH_824_106	5.500000	10.200000	0.000000	0.000000	0.000000
;   manhole
MH_824_107	5.300000	6.900000	0.000000	0.000000	0.000000
;   manhole
MH_824_108	3.400000	10.000000	0.000000	0.000000	0.000000
;   manhole
MH_824_109	14.100000	4.600000	0.000000	0.000000	0.000000
;   manhole
MH_824_11	2.600000	3.500000	0.000000	0.000000	0.000000
;   manhole
MH_824_110	9.100000	9.100000	0.000000	0.000000	0.000000
;   manhole
MH_824_111	14.400000	5.700000	0.000000	0.000000	0.000000
;   manhole
MH_824_112	10.600000	6.500000	0.000000	0.000000	0.000000
;   manhole
MH_824_113	14.400000	6.100000	0.000000	0.000000	0.000000
;   manhole
MH_824_114	12.600000	4.000000	0.000000	0.000000	0.000000
;   manhole
MH_824_115	13.100000	3.700000	0.000000	0.000000	0.000000
;   manhole
MH_824_116	10.800000	7.300000	0.000000	0.000000	0.000000
;   manhole
MH_824_117	14.800000	5.900000	0.000000	0.000000	0.000000
;   manhole
MH_824_118	16.300000	3.500000	0.000000	0.000000	0.000000
;   manhole
MH_824_119	4.100000	9.600000	0.000000	0.000000	0.000000
;   manhole
MH_824_12	1.800000	4.400000	0.000000	0.000000	0.000000
;   manhole
MH_824_120	11.100000	4.600000	0.000000	0.000000	0.000000
;   manhole
MH_824_121	2.800000	9.900000	0.000000	0.000000	0.000000
;   manhole
MH_824_122	-0.300000	9.900000	0.000000	0.000000	0.000000
;   manhole
MH_824_123	-0.900000	9.600000	0.000000	0.000000	0.000000
;   manhole
MH_824_124	8.700000	6.100000	0.000000	0.000000	0.000000
;   manhole
MH_824_125	1.200000	9.500000	0.000000	0.000000	0.000000
;   manhole
MH_824_126	2.000000	9.800000	0.000000	0.000000	0.000000
;   manhole
MH_824_127	10.900000	6.200000	0.000000	0.000000	0.000000
;   manhole
MH_824_128	9.300000	7.300000	0.000000	0.000000	0.000000
;   manhole
MH_824_129	11.200000	5.700000	0.000000	0.000000	0.000000
;   manhole
MH_824_13	-5.900000	13.400000	0.000000	0.000000	0.000000
;   manhole
MH_824_130	9.700000	5.000000	0.000000	0.000000	0.000000
;   manhole
MH_824_131	12.400000	5.100000	0.000000	0.000000	0.000000
;   manhole
MH_824_132	10.700000	6.100000	0.000000	0.000000	0.000000
;   manhole
MH_824_133	9.000000	7.500000	0.000000	0.000000	0.000000
;   manhole
MH_824_134	15.200000	4.200000	0.000000	0.000000	0.000000
;   manhole
MH_824_135	14.800000	4.600000	0.000000	0.000000	0.000000
;   manhole
MH_824_136	12.900000	5.500000	0.000000	0.000000	0.000000
;   manhole
MH_824_137	14.600000	5.400000	0.000000	0.000000	0.000000
;   manhole
MH_824_138	8.200000	6.700000	0.000000	0.000000	0.000000
;   manhole
MH_824_139	12.000000	7.000000	0.000000	0.000000	0.000000
;   manhole
MH_824_14	1.000000	5.700000	0.000000	0.000000	0.000000
;   manhole
MH_824_140	6.000000	10.700000	0.000000	0.000000	0.000000
;   manhole
MH_824_141	7.900000	14.600000	0.000000	0.000000	0.000000
;   manhole
MH_824_142	6.800000	9.300000	0.000000	0.000000	0.000000
;   manhole
MH_824_143	13.200000	4.200000	0.000000	0.000000	0.000000
;   manhole
MH_824_144	11.400000	7.200000	0.000000	0.000000	0.000000
;   manhole
MH_824_145	7.200000	7.200000	0.000000	0.000000	0.000000
;   manhole
MH_824_146	13.600000	6.500000	0.000000	0.000000	0.000000
;   manhole
MH_824_147	1.600000	10.200000	0.000000	0.000000	0.000000
;   manhole
MH_824_148	-1.300000	9.600000	0.000000	0.000000	0.000000
;   manhole
MH_824_149	0.500000	9.400000	0.000000	0.000000	0.000000
;   manhole
MH_824_15	-2.100000	9.000000	0.000000	0.000000	0.000000
;   manhole
MH_824_150	14.200000	3.700000	0.000000	0.000000	0.000000
;   manhole
MH_824_151	4.200000	8.900000	0.000000	0.000000	0.000000
;   manhole
MH_824_152	-0.500000	9.200000	0.000000	0.000000	0.000000
;   manhole
MH_824_153	5.000000	10.800000	0.000000	0.000000	0.000000
;   manhole
MH_824_154	10.500000	5.200000	0.000000	0.000000	0.000000
;   manhole
MH_824_155	11.200000	7.400000	0.000000	0.000000	0.000000
;   manhole
MH_824_156	13.100000	6.800000	0.000000	0.000000	0.000000
;   manhole
MH_824_157	11.800000	7.400000	0.000000	0.000000	0.000000
;   manhole
MH_824_158	10.200000	8.700000	0.000000	0.000000	0.000000
;   manhole
MH_824_159	12.400000	4.000000	0.000000	0.000000	0.000000
;   manhole
MH_824_16	-1.400000	8.800000	0.000000	0.000000	0.000000
;   manhole
MH_824_160	11.700000	6.200000	0.000000	0.000000	0.000000
;   manhole
MH_824_161	11.000000	8.400000	0.000000	0.000000	0.000000
;   manhole
MH_824_162	9.600000	10.300000	0.000000	0.000000	0.000000
;   manhole
MH_824_163	12.200000	6.700000	0.000000	0.000000	0.000000
;   manhole
MH_824_164	16.200000	3.800000	0.000000	0.000000	0.000000
;   manhole
MH_824_17	-0.100000	7.600000	0.000000	0.000000	0.000000
;   manhole
MH_824_18	3.600000	4.200000	0.000000	0.000000	0.000000
;   manhole
MH_824_19	-6.700000	12.800000	0.000000	0.000000	0.000000
;   manhole
MH_824_2	0.800000	5.700000	0.000000	0.000000	0.000000
;   manhole
MH_824_20	-0.500000	8.300000	0.000000	0.000000	0.000000
;   manhole
MH_824_21	4.300000	4.000000	0.000000	0.000000	0.000000
;   manhole
MH_824_22	2.400000	5.400000	0.000000	0.000000	0.000000
;   manhole
MH_824_23	2.100000	5.700000	0.000000	0.000000	0.000000
;   manhole
MH_824_24	5.300000	6.900000	0.000000	0.000000	0.000000
;   manhole
MH_824_25	-7.000000	14.800000	0.000000	0.000000	0.000000
;   manhole
MH_824_26	3.500000	4.100000	0.000000	0.000000	0.000000
;   manhole
MH_824_27	1.300000	6.000000	0.000000	0.000000	0.000000
;   manhole
MH_824_28	0.200000	7.600000	0.000000	0.000000	0.000000
;   manhole
MH_824_29	-0.900000	8.900000	0.000000	0.000000	0.000000
;   manhole
MH_824_3	0.200000	3.600000	0.000000	0.000000	0.000000
;   manhole
MH_824_30	-1.300000	9.100000	0.000000	0.000000	0.000000
;   manhole
MH_824_31	3.500000	3.700000	0.000000	0.000000	0.000000
;   manhole
MH_824_32	2.900000	4.800000	0.000000	0.000000	0.000000
;   manhole
MH_824_33	-5.300000	14.000000	0.000000	0.000000	0.000000
;   manhole
MH_824_34	-6.300000	15.200000	0.000000	0.000000	0.000000
;   manhole
MH_824_35	-1.900000	9.700000	0.000000	0.000000	0.000000
;   manhole
MH_824_36	2.000000	6.200000	0.000000	0.000000	0.000000
;   manhole
MH_824_37	-2.200000	9.700000	0.000000	0.000000	0.000000
;   manhole
MH_824_38	-2.500000	10.500000	0.000000	0.000000	0.000000
;   manhole
MH_824_39	1.800000	6.500000	0.000000	0.000000	0.000000
;   manhole
MH_824_4	1.600000	4.600000	0.000000	0.000000	0.000000
;   manhole
MH_824_40	0.400000	8.500000	0.000000	0.000000	0.000000
;   manhole
MH_824_41	7.300000	3.900000	0.000000	0.000000	0.000000
;   manhole
MH_824_42	4.500000	7.300000	0.000000	0.000000	0.000000
;   manhole
MH_824_43	3.200000	6.000000	0.000000	0.000000	0.000000
;   manhole
MH_824_44	0.500000	7.500000	0.000000	0.000000	0.000000
;   manhole
MH_824_45	-1.000000	8.800000	0.000000	0.000000	0.000000
;   manhole
MH_824_46	1.300000	7.000000	0.000000	0.000000	0.000000
;   manhole
MH_824_47	-4.000000	13.700000	0.000000	0.000000	0.000000
;   manhole
MH_824_48	1.100000	6.900000	0.000000	0.000000	0.000000
;   manhole
MH_824_49	6.400000	4.300000	0.000000	0.000000	0.000000
;   manhole
MH_824_5	-0.900000	7.000000	0.000000	0.000000	0.000000
;   manhole
MH_824_50	3.800000	7.300000	0.000000	0.000000	0.000000
;   manhole
MH_824_51	2.900000	7.300000	0.000000	0.000000	0.000000
;   manhole
MH_824_52	7.200000	4.000000	0.000000	0.000000	0.000000
;   manhole
MH_824_53	2.500000	5.800000	0.000000	0.000000	0.000000
;   manhole
MH_824_54	3.300000	4.700000	0.000000	0.000000	0.000000
;   manhole
MH_824_55	2.700000	8.200000	0.000000	0.000000	0.000000
;   manhole
MH_824_56	4.200000	4.000000	0.000000	0.000000	0.000000
;   manhole
MH_824_57	3.600000	4.500000	0.000000	0.000000	0.000000
;   manhole
MH_824_58	4.500000	3.800000	0.000000	0.000000	0.000000
;   manhole
MH_824_59	3.000000	7.500000	0.000000	0.000000	0.000000
;   manhole
MH_824_6	-3.000000	9.500000	0.000000	0.000000	0.000000
;   manhole
MH_824_60	-3.000000	15.000000	0.000000	0.000000	0.000000
;   manhole
MH_824_61	-1.600000	3.900000	0.000000	0.000000	0.000000
;   manhole
MH_824_62	4.000000	7.200000	0.000000	0.000000	0.000000
;   manhole
MH_824_63	0.100000	10.300000	0.000000	0.000000	0.000000
;   manhole
MH_824_64	0.000000	11.000000	0.000000	0.000000	0.000000
;   manhole
MH_824_65	4.300000	5.000000	0.000000	0.000000	0.000000
;   manhole
MH_824_66	6.000000	5.100000	0.000000	0.000000	0.000000
;   manhole
MH_824_67	1.500000	9.700000	0.000000	0.000000	0.000000
;   manhole
MH_824_68	5.000000	7.700000	0.000000	0.000000	0.000000
;   manhole
MH_824_69	10.100000	5.100000	0.000000	0.000000	0.000000
;   manhole
MH_824_7	-2.100000	8.900000	0.000000	0.000000	0.000000
;   manhole
MH_824_70	8.500000	8.000000	0.000000	0.000000	0.000000
;   manhole
MH_824_71	10.000000	4.800000	0.000000	0.000000	0.000000
;   manhole
MH_824_72	7.800000	4.600000	0.000000	0.000000	0.000000
;   manhole
MH_824_73	9.100000	6.500000	0.000000	0.000000	0.000000
;   manhole
MH_824_74	7.800000	8.000000	0.000000	0.000000	0.000000
;   manhole
MH_824_75	7.200000	4.900000	0.000000	0.000000	0.000000
;   manhole
MH_824_76	8.900000	4.700000	0.000000	0.000000	0.000000
;   manhole
MH_824_77	8.200000	4.700000	0.000000	0.000000	0.000000
;   manhole
MH_824_78	8.200000	4.700000	0.000000	0.000000	0.000000
;   manhole
MH_824_79	13.100000	3.800000	0.000000	0.000000	0.000000
;   manhole
MH_824_8	-3.700000	10.800000	0.000000	0.000000	0.000000
;   manhole
MH_824_80	7.300000	9.100000	0.000000	0.000000	0.000000
;   manhole
MH_824_81	11.600000	6.200000	0.000000	0.000000	0.000000
;   manhole
MH_824_82	3.200000	14.900000	0.000000	0.000000	0.000000
;   manhole
MH_824_83	4.300000	12.200000	0.000000	0.000000	0.000000
;   manhole
MH_824_84	3.900000	13.000000	0.000000	0.000000	0.000000
;   manhole
MH_824_85	5.500000	11.800000	0.000000	0.000000	0.000000
;   manhole
MH_824_86	6.300000	10.700000	0.000000	0.000000	0.000000
;   manhole
MH_824_87	10.900000	6.200000	0.000000	0.000000	0.000000
;   manhole
MH_824_88	2.600000	14.500000	0.000000	0.000000	0.000000
;   manhole
MH_824_89	2.100000	15.000000	0.000000	0.000000	0.000000
;   manhole
MH_824_9	2.800000	3.900000	0.000000	0.000000	0.000000
;   manhole
MH_824_90	7.600000	9.200000	0.000000	0.000000	0.000000
;   manhole
MH_824_91	8.700000	3.200000	0.000000	0.000000	0.000000
;   manhole
MH_824_92	11.400000	6.200000	0.000000	0.000000	0.000000
;   manhole
MH_824_93	7.800000	6.100000	0.000000	0.000000	0.000000
;   manhole
MH_824_94	7.100000	6.800000	0.000000	0.000000	0.000000
;   manhole
MH_824_95	5.600000	9.800000	0.000000	0.000000	0.000000
;   manhole
MH_824_96	5.800000	2.200000	0.000000	0.000000	0.000000
;   manhole
MH_824_97	10.300000	9.000000	0.000000	0.000000	0.000000
;   manhole
MH_824_98	11.700000	7.600000	0.000000	0.000000	0.000000
;   manhole
MH_824_99	14.600000	5.500000	0.000000	0.000000	0.000000
;   manhole
MH_825_10	0.300000	4.700000	0.000000	0.000000	0.000000
;   manhole
MH_825_11	-9.100000	13.400000	0.000000	0.000000	0.000000
;   manhole
MH_825_12	4.200000	4.800000	0.000000	0.000000	0.000000
;   manhole
MH_825_13	6.500000	7.100000	0.000000	0.000000	0.000000
;   manhole
MH_825_14	11.400000	5.200000	0.000000	0.000000	0.000000
;   manhole
MH_825_2	2.400000	9.600000	0.000000	0.000000	0.000000
;   manhole
MH_825_3	1.700000	11.300000	0.000000	0.000000	0.000000
;   manhole
MH_825_4	1.900000	9.600000	0.000000	0.000000	0.000000
;   manhole
MH_825_5	5.400000	6.300000	0.000000	0.000000	0.000000
;   manhole
MH_825_6	11.800000	4.700000	0.000000	0.000000	0.000000
;   manhole
MH_825_7	8.100000	7.300000	0.000000	0.000000	0.000000
;   manhole
MH_825_8	-2.200000	6.100000	0.000000	0.000000	0.000000
;   manhole
MH_825_9	-1.800000	5.400000	0.000000	0.000000	0.000000
;   manhole
MH_919_1	9.300000	10.900000	0.000000	0.000000	0.000000
;   manhole
MH_919_10	5.200000	10.500000	0.000000	0.000000	0.000000
;   manhole
MH_919_100	10.300000	5.500000	0.000000	0.000000	0.000000
;   manhole
MH_919_101	5.300000	2.800000	0.000000	0.000000	0.000000
;   manhole
MH_919_102	10.000000	5.500000	0.000000	0.000000	0.000000
;   manhole
MH_919_103	5.400000	12.000000	0.000000	0.000000	0.000000
;   manhole
MH_919_104	4.500000	8.000000	0.000000	0.000000	0.000000
;   manhole
MH_919_105	-1.000000	9.900000	0.000000	0.000000	0.000000
;   manhole
MH_919_106	11.700000	4.900000	0.000000	0.000000	0.000000
;   manhole
MH_919_107	10.600000	5.100000	0.000000	0.000000	0.000000
;   manhole
MH_919_108	4.400000	4.200000	0.000000	0.000000	0.000000
;   manhole
MH_919_109	2.000000	12.300000	0.000000	0.000000	0.000000
;   manhole
MH_919_11	13.200000	4.600000	0.000000	0.000000	0.000000
;   manhole
MH_919_110	4.400000	4.500000	0.000000	0.000000	0.000000
;   manhole
MH_919_111	2.100000	9.900000	0.000000	0.000000	0.000000
;   manhole
MH_919_112	8.500000	10.000000	0.000000	0.000000	0.000000
;   manhole
MH_919_113	5.100000	3.200000	0.000000	0.000000	0.000000
;   manhole
MH_919_114	11.700000	5.200000	0.000000	0.000000	0.000000
;   manhole
MH_919_115	3.300000	4.400000	0.000000	0.000000	0.000000
;   manhole
MH_919_116	2.500000	8.000000	0.000000	0.000000	0.000000
;   manhole
MH_919_117	2.500000	5.400000	0.000000	0.000000	0.000000
;   manhole
MH_919_118	5.800000	2.200000	0.000000	0.000000	0.000000
;   manhole
MH_919_119	2.900000	11.500000	0.000000	0.000000	0.000000
;   manhole
MH_919_12	12.100000	4.400000	0.000000	0.000000	0.000000
;   manhole
MH_919_120	-0.100000	9.400000	0.000000	0.000000	0.000000
;   manhole
MH_919_121	0.200000	9.700000	0.000000	0.000000	0.000000
;   manhole
MH_919_122	0.500000	9.400000	0.000000	0.000000	0.000000
;   manhole
MH_919_123	4.400000	11.800000	0.000000	0.000000	0.000000
;   manhole
MH_919_124	1.000000	7.700000	0.000000	0.000000	0.000000
;   manhole
MH_919_125	1.900000	7.100000	0.000000	0.000000	0.000000
;   manhole
MH_919_126	2.600000	10.300000	0.000000	0.000000	0.000000
;   manhole
MH_919_127	3.600000	11.000000	0.000000	0.000000	0.000000
;   manhole
MH_919_128	3.500000	6.200000	0.000000	0.000000	0.000000
;   manhole
MH_919_129	4.100000	12.200000	0.000000	0.000000	0.000000
;   manhole
MH_919_13	7.800000	12.200000	0.000000	0.000000	0.000000
;   manhole
MH_919_130	1.700000	7.700000	0.000000	0.000000	0.000000
;   manhole
MH_919_131	3.000000	9.600000	0.000000	0.000000	0.000000
;   manhole
MH_919_132	0.200000	10.200000	0.000000	0.000000	0.000000
;   manhole
MH_919_133	5.100000	4.700000	0.000000	0.000000	0.000000
;   manhole
MH_919_134	7.300000	11.700000	0.000000	0.000000	0.000000
;   manhole
MH_919_135	6.400000	12.300000	0.000000	0.000000	0.000000
;   manhole
MH_919_136	3.100000	8.200000	0.000000	0.000000	0.000000
;   manhole
MH_919_137	4.400000	11.400000	0.000000	0.000000	0.000000
;   manhole
MH_919_138	5.200000	10.900000	0.000000	0.000000	0.000000
;   manhole
MH_919_139	9.400000	3.700000	0.000000	0.000000	0.000000
;   manhole
MH_919_14	16.000000	4.200000	0.000000	0.000000	0.000000
;   manhole
MH_919_140	8.000000	4.800000	0.000000	0.000000	0.000000
;   manhole
MH_919_141	4.300000	7.600000	0.000000	0.000000	0.000000
;   manhole
MH_919_142	10.600000	8.100000	0.000000	0.000000	0.000000
;   manhole
MH_919_143	0.400000	7.500000	0.000000	0.000000	0.000000
;   manhole
MH_919_144	7.900000	2.200000	0.000000	0.000000	0.000000
;   manhole
MH_919_145	10.000000	4.600000	0.000000	0.000000	0.000000
;   manhole
MH_919_146	6.900000	6.000000	0.000000	0.000000	0.000000
;   manhole
MH_919_147	4.200000	7.400000	0.000000	0.000000	0.000000
;   manhole
MH_919_148	4.100000	8.400000	0.000000	0.000000	0.000000
;   manhole
MH_919_149	5.000000	6.000000	0.000000	0.000000	0.000000
;   manhole
MH_919_15	14.700000	3.700000	0.000000	0.000000	0.000000
;   manhole
MH_919_150	6.400000	4.400000	0.000000	0.000000	0.000000
;   manhole
MH_919_151	8.100000	3.700000	0.000000	0.000000	0.000000
;   manhole
MH_919_152	9.600000	2.500000	0.000000	0.000000	0.000000
;   manhole
MH_919_153	6.100000	9.600000	0.000000	0.000000	0.000000
;   manhole
MH_919_154	5.000000	7.500000	0.000000	0.000000	0.000000
;   manhole
MH_919_155	1.600000	5.900000	0.000000	0.000000	0.000000
;   manhole
MH_919_156	5.300000	3.000000	0.000000	0.000000	0.000000
;   manhole
MH_919_157	8.500000	4.800000	0.000000	0.000000	0.000000
;   manhole
MH_919_158	4.700000	4.800000	0.000000	0.000000	0.000000
;   manhole
MH_919_159	8.000000	5.900000	0.000000	0.000000	0.000000
;   manhole
MH_919_16	14.800000	2.500000	0.000000	0.000000	0.000000
;   manhole
MH_919_160	5.200000	8.700000	0.000000	0.000000	0.000000
;   manhole
MH_919_161	5.200000	4.500000	0.000000	0.000000	0.000000
;   manhole
MH_919_162	3.100000	6.900000	0.000000	0.000000	0.000000
;   manhole
MH_919_163	5.300000	6.200000	0.000000	0.000000	0.000000
;   manhole
MH_919_164	5.200000	5.200000	0.000000	0.000000	0.000000
;   manhole
MH_919_165	4.000000	6.500000	0.000000	0.000000	0.000000
;   manhole
MH_919_166	6.500000	3.700000	0.000000	0.000000	0.000000
;   manhole
MH_919_167	8.600000	3.500000	0.000000	0.000000	0.000000
;   manhole
MH_919_168	8.000000	2.700000	0.000000	0.000000	0.000000
;   manhole
MH_919_169	3.900000	7.400000	0.000000	0.000000	0.000000
;   manhole
MH_919_17	9.100000	5.700000	0.000000	0.000000	0.000000
;   manhole
MH_919_170	6.900000	4.600000	0.000000	0.000000	0.000000
;   manhole
MH_919_171	7.500000	6.000000	0.000000	0.000000	0.000000
;   manhole
MH_919_172	7.500000	3.500000	0.000000	0.000000	0.000000
;   manhole
MH_919_173	4.500000	5.100000	0.000000	0.000000	0.000000
;   manhole
MH_919_174	5.300000	3.600000	0.000000	0.000000	0.000000
;   manhole
MH_919_175	5.500000	3.700000	0.000000	0.000000	0.000000
;   manhole
MH_919_176	6.600000	3.600000	0.000000	0.000000	0.000000
;   manhole
MH_919_177	5.800000	5.000000	0.000000	0.000000	0.000000
;   manhole
MH_919_178	6.100000	3.700000	0.000000	0.000000	0.000000
;   manhole
MH_919_179	6.800000	5.000000	0.000000	0.000000	0.000000
;   manhole
MH_919_18	8.700000	6.800000	0.000000	0.000000	0.000000
;   manhole
MH_919_180	7.800000	4.500000	0.000000	0.000000	0.000000
;   manhole
MH_919_181	6.600000	5.900000	0.000000	0.000000	0.000000
;   manhole
MH_919_182	4.700000	7.100000	0.000000	0.000000	0.000000
;   manhole
MH_919_183	9.300000	3.000000	0.000000	0.000000	0.000000
;   manhole
MH_919_184	-0.600000	11.800000	0.000000	0.000000	0.000000
;   manhole
MH_919_185	-1.000000	11.000000	0.000000	0.000000	0.000000
;   manhole
MH_919_186	7.200000	3.500000	0.000000	0.000000	0.000000
;   manhole
MH_919_187	1.900000	9.800000	0.000000	0.000000	0.000000
;   manhole
MH_919_188	4.500000	5.000000	0.000000	0.000000	0.000000
;   manhole
MH_919_189	5.800000	6.100000	0.000000	0.000000	0.000000
;   manhole
MH_919_19	8.500000	7.700000	0.000000	0.000000	0.000000
;   manhole
MH_919_190	-1.700000	10.400000	0.000000	0.000000	0.000000
;   manhole
MH_919_191	-1.600000	11.300000	0.000000	0.000000	0.000000
;   manhole
MH_919_192	0.100000	11.100000	0.000000	0.000000	0.000000
;   manhole
MH_919_193	1.700000	8.000000	0.000000	0.000000	0.000000
;   manhole
MH_919_194	2.900000	3.500000	0.000000	0.000000	0.000000
;   manhole
MH_919_195	9.000000	3.500000	0.000000	0.000000	0.000000
;   manhole
MH_919_196	4.000000	4.200000	0.000000	0.000000	0.000000
;   manhole
MH_919_197	3.300000	10.200000	0.000000	0.000000	0.000000
;   manhole
MH_919_198	10.400000	3.500000	0.000000	0.000000	0.000000
;   manhole
MH_919_199	7.000000	4.100000	0.000000	0.000000	0.000000
;   manhole
MH_919_2	11.700000	7.600000	0.000000	0.000000	0.000000
;   manhole
MH_919_20	10.100000	6.000000	0.000000	0.000000	0.000000
;   manhole
MH_919_200	0.400000	9.200000	0.000000	0.000000	0.000000
;   manhole
MH_919_201	-0.300000	8.500000	0.000000	0.000000	0.000000
;   manhole
MH_919_202	1.400000	11.300000	0.000000	0.000000	0.000000
;   manhole
MH_919_203	2.100000	11.000000	0.000000	0.000000	0.000000
;   manhole
MH_919_204	2.600000	11.500000	0.000000	0.000000	0.000000
;   manhole
MH_919_205	1.700000	7.100000	0.000000	0.000000	0.000000
;   manhole
MH_919_206	2.400000	4.700000	0.000000	0.000000	0.000000
;   manhole
MH_919_207	4.500000	8.300000	0.000000	0.000000	0.000000
;   manhole
MH_919_208	1.300000	8.000000	0.000000	0.000000	0.000000
;   manhole
MH_919_209	5.000000	9.000000	0.000000	0.000000	0.000000
;   manhole
MH_919_21	10.600000	5.700000	0.000000	0.000000	0.000000
;   manhole
MH_919_210	5.600000	8.000000	0.000000	0.000000	0.000000
;   manhole
MH_919_211	8.400000	5.600000	0.000000	0.000000	0.000000
;   manhole
MH_919_212	4.100000	7.100000	0.000000	0.000000	0.000000
;   manhole
MH_919_213	5.800000	5.500000	0.000000	0.000000	0.000000
;   manhole
MH_919_214	4.700000	8.200000	0.000000	0.000000	0.000000
;   manhole
MH_919_215	2.900000	4.000000	0.000000	0.000000	0.000000
;   manhole
MH_919_216	9.500000	3.500000	0.000000	0.000000	0.000000
;   manhole
MH_919_217	5.200000	4.700000	0.000000	0.000000	0.000000
;   manhole
MH_919_218	9.200000	3.300000	0.000000	0.000000	0.000000
;   manhole
MH_919_219	7.500000	5.500000	0.000000	0.000000	0.000000
;   manhole
MH_919_22	9.400000	6.200000	0.000000	0.000000	0.000000
;   manhole
MH_919_220	6.800000	5.600000	0.000000	0.000000	0.000000
;   manhole
MH_919_221	-4.400000	8.900000	0.000000	0.000000	0.000000
;   manhole
MH_919_222	6.200000	4.800000	0.000000	0.000000	0.000000
;   manhole
MH_919_223	1.500000	5.500000	0.000000	0.000000	0.000000
;   manhole
MH_919_224	4.000000	3.500000	0.000000	0.000000	0.000000
;   manhole
MH_919_225	8.200000	3.600000	0.000000	0.000000	0.000000
;   manhole
MH_919_226	6.300000	1.800000	0.000000	0.000000	0.000000
;   manhole
MH_919_227	7.200000	13.100000	0.000000	0.000000	0.000000
;   manhole
MH_919_228	-3.900000	8.700000	0.000000	0.000000	0.000000
;   manhole
MH_919_229	0.400000	5.400000	0.000000	0.000000	0.000000
;   manhole
MH_919_23	12.600000	4.300000	0.000000	0.000000	0.000000
;   manhole
MH_919_230	0.700000	6.000000	0.000000	0.000000	0.000000
;   manhole
MH_919_231	9.500000	2.500000	0.000000	0.000000	0.000000
;   manhole
MH_919_232	8.900000	3.400000	0.000000	0.000000	0.000000
;   manhole
MH_919_233	2.000000	5.800000	0.000000	0.000000	0.000000
;   manhole
MH_919_234	3.400000	5.900000	0.000000	0.000000	0.000000
;   manhole
MH_919_24	11.500000	4.200000	0.000000	0.000000	0.000000
;   manhole
MH_919_25	9.100000	7.400000	0.000000	0.000000	0.000000
;   manhole
MH_919_26	15.500000	3.500000	0.000000	0.000000	0.000000
;   manhole
MH_919_27	-1.600000	11.300000	0.000000	0.000000	0.000000
;   manhole
MH_919_28	7.900000	9.100000	0.000000	0.000000	0.000000
;   manhole
MH_919_29	6.400000	13.800000	0.000000	0.000000	0.000000
;   manhole
MH_919_3	10.900000	9.600000	0.000000	0.000000	0.000000
;   manhole
MH_919_30	8.300000	8.300000	0.000000	0.000000	0.000000
;   manhole
MH_919_31	7.600000	11.800000	0.000000	0.000000	0.000000
;   manhole
MH_919_32	16.200000	5.900000	0.000000	0.000000	0.000000
;   manhole
MH_919_33	11.900000	3.700000	0.000000	0.000000	0.000000
;   manhole
MH_919_34	12.600000	3.900000	0.000000	0.000000	0.000000
;   manhole
MH_919_35	0.300000	6.200000	0.000000	0.000000	0.000000
;   manhole
MH_919_36	-2.700000	9.200000	0.000000	0.000000	0.000000
;   manhole
MH_919_37	2.000000	6.400000	0.000000	0.000000	0.000000
;   manhole
MH_919_38	9.800000	4.800000	0.000000	0.000000	0.000000
;   manhole
MH_919_39	7.200000	8.800000	0.000000	0.000000	0.000000
;   manhole
MH_919_4	10.900000	5.500000	0.000000	0.000000	0.000000
;   manhole
MH_919_40	9.400000	6.600000	0.000000	0.000000	0.000000
;   manhole
MH_919_41	3.600000	7.400000	0.000000	0.000000	0.000000
;   manhole
MH_919_42	6.700000	6.000000	0.000000	0.000000	0.000000
;   manhole
MH_919_43	5.300000	10.900000	0.000000	0.000000	0.000000
;   manhole
MH_919_44	5.100000	10.000000	0.000000	0.000000	0.000000
;   manhole
MH_919_45	10.700000	5.800000	0.000000	0.000000	0.000000
;   manhole
MH_919_46	9.700000	6.100000	0.000000	0.000000	0.000000
;   manhole
MH_919_47	9.000000	7.300000	0.000000	0.000000	0.000000
;   manhole
MH_919_48	-3.700000	9.600000	0.000000	0.000000	0.000000
;   manhole
MH_919_49	2.500000	6.600000	0.000000	0.000000	0.000000
;   manhole
MH_919_5	6.200000	11.600000	0.000000	0.000000	0.000000
;   manhole
MH_919_50	4.000000	6.200000	0.000000	0.000000	0.000000
;   manhole
MH_919_51	5.300000	6.500000	0.000000	0.000000	0.000000
;   manhole
MH_919_52	1.600000	5.700000	0.000000	0.000000	0.000000
;   manhole
MH_919_53	4.700000	6.100000	0.000000	0.000000	0.000000
;   manhole
MH_919_54	8.300000	6.300000	0.000000	0.000000	0.000000
;   manhole
MH_919_55	4.400000	7.200000	0.000000	0.000000	0.000000
;   manhole
MH_919_56	6.300000	6.700000	0.000000	0.000000	0.000000
;   manhole
MH_919_57	2.900000	9.100000	0.000000	0.000000	0.000000
;   manhole
MH_919_58	8.400000	8.100000	0.000000	0.000000	0.000000
;   manhole
MH_919_59	2.700000	6.900000	0.000000	0.000000	0.000000
;   manhole
MH_919_6	7.200000	10.000000	0.000000	0.000000	0.000000
;   manhole
MH_919_60	1.100000	9.600000	0.000000	200.000000	0.000000
;   manhole
MH_919_61	1.400000	8.400000	0.000000	0.000000	0.000000
;   manhole
MH_919_63	5.500000	5.700000	0.000000	0.000000	0.000000
;   manhole
MH_919_64	-4.800000	10.300000	0.000000	0.000000	0.000000
;   manhole
MH_919_65	0.300000	8.000000	0.000000	0.000000	0.000000
;   manhole
MH_919_66	2.400000	5.700000	0.000000	0.000000	0.000000
;   manhole
MH_919_67	1.300000	6.700000	0.000000	0.000000	0.000000
;   manhole
MH_919_68	9.300000	4.900000	0.000000	0.000000	0.000000
;   manhole
MH_919_69	3.500000	4.600000	0.000000	0.000000	0.000000
;   manhole
MH_919_7	10.600000	6.500000	0.000000	0.000000	0.000000
;   manhole
MH_919_70	4.800000	4.400000	0.000000	0.000000	0.000000
;   manhole
MH_919_71	-1.900000	10.000000	0.000000	0.000000	0.000000
;   manhole
MH_919_72	7.600000	9.600000	0.000000	0.000000	0.000000
;   manhole
MH_919_73	6.900000	9.600000	0.000000	0.000000	0.000000
;   manhole
MH_919_74	4.300000	5.000000	0.000000	0.000000	0.000000
;   manhole
MH_919_75	-3.000000	10.900000	0.000000	0.000000	0.000000
;   manhole
MH_919_76	8.500000	7.600000	0.000000	0.000000	0.000000
;   manhole
MH_919_77	8.200000	7.100000	0.000000	0.000000	0.000000
;   manhole
MH_919_78	7.000000	6.700000	0.000000	0.000000	0.000000
;   manhole
MH_919_79	5.700000	6.800000	0.000000	0.000000	0.000000
;   manhole
MH_919_8	9.000000	7.300000	0.000000	0.000000	0.000000
;   manhole
MH_919_80	10.700000	7.100000	0.000000	0.000000	0.000000
;   manhole
MH_919_81	-1.100000	12.100000	0.000000	0.000000	0.000000
;   manhole
MH_919_82	8.800000	5.500000	0.000000	0.000000	0.000000
;   manhole
MH_919_83	2.200000	6.200000	0.000000	0.000000	0.000000
;   manhole
MH_919_84	3.500000	4.000000	0.000000	0.000000	0.000000
;   manhole
MH_919_85	4.500000	4.100000	0.000000	0.000000	0.000000
;   manhole
MH_919_86	5.500000	2.300000	0.000000	0.000000	0.000000
;   manhole
MH_919_87	5.500000	4.700000	0.000000	0.000000	0.000000
;   manhole
MH_919_88	-2.300000	11.500000	0.000000	0.000000	0.000000
;   manhole
MH_919_89	6.100000	9.700000	0.000000	0.000000	0.000000
;   manhole
MH_919_9	-0.400000	16.100000	0.000000	0.000000	0.000000
;   manhole
MH_919_90	6.100000	1.900000	0.000000	0.000000	0.000000
;   manhole
MH_919_91	3.000000	5.200000	0.000000	0.000000	0.000000
;   manhole
MH_919_92	10.200000	6.900000	0.000000	0.000000	0.000000
;   manhole
MH_919_93	9.400000	5.700000	0.000000	0.000000	0.000000
;   manhole
MH_919_94	5.600000	2.700000	0.000000	0.000000	0.000000
;   manhole
MH_919_95	9.400000	8.700000	0.000000	0.000000	0.000000
;   manhole
MH_919_96	0.300000	13.900000	0.000000	0.000000	0.000000
;   manhole
MH_919_97	4.300000	4.100000	0.000000	0.000000	0.000000
;   manhole
MH_919_98	5.600000	2.900000	0.000000	0.000000	0.000000
;   manhole
MH_919_99	6.000000	3.100000	0.000000	0.000000	0.000000
;   manhole
MH_920_1	-3.600000	10.100000	0.000000	0.000000	0.000000
;   manhole
MH_920_10	-0.400000	10.300000	0.000000	0.000000	0.000000
;   manhole
MH_920_11	2.300000	9.000000	0.000000	0.000000	0.000000
;   manhole
MH_920_12	4.000000	8.900000	0.000000	0.000000	0.000000
;   manhole
MH_920_13	5.600000	7.100000	0.000000	0.000000	0.000000
;   manhole
MH_920_14	7.300000	3.900000	0.000000	0.000000	0.000000
;   manhole
MH_920_15	-0.300000	9.300000	0.000000	0.000000	0.000000
;   manhole
MH_920_16	0.700000	9.400000	0.000000	0.000000	0.000000
;   manhole
MH_920_17	1.400000	9.700000	0.000000	0.000000	0.000000
;   manhole
MH_920_18	2.700000	9.500000	0.000000	0.000000	0.000000
;   manhole
MH_920_19	4.000000	7.200000	0.000000	0.000000	0.000000
;   manhole
MH_920_2	-2.300000	8.600000	0.000000	0.000000	0.000000
;   manhole
MH_920_20	5.200000	7.400000	0.000000	0.000000	0.000000
;   manhole
MH_920_21	7.800000	5.100000	0.000000	0.000000	0.000000
;   manhole
MH_920_22	4.600000	5.800000	0.000000	0.000000	0.000000
;   manhole
MH_920_23	6.100000	3.900000	0.000000	0.000000	0.000000
;   manhole
MH_920_24	3.000000	9.400000	0.000000	0.000000	0.000000
;   manhole
MH_920_25	7.700000	3.100000	0.000000	0.000000	0.000000
;   manhole
MH_920_26	7.000000	3.200000	0.000000	0.000000	0.000000
;   manhole
MH_920_27	5.600000	5.700000	0.000000	0.000000	0.000000
;   manhole
MH_920_28	6.200000	3.100000	0.000000	0.000000	0.000000
;   manhole
MH_920_29	1.900000	10.400000	0.000000	0.000000	0.000000
;   manhole
MH_920_3	4.700000	4.700000	0.000000	0.000000	0.000000
;   manhole
MH_920_30	4.900000	4.100000	0.000000	0.000000	0.000000
;   manhole
MH_920_31	7.000000	5.000000	0.000000	0.000000	0.000000
;   manhole
MH_920_32	2.500000	9.900000	0.000000	0.000000	0.000000
;   manhole
MH_920_33	1.100000	11.100000	0.000000	0.000000	0.000000
;   manhole
MH_920_34	3.800000	6.000000	0.000000	0.000000	0.000000
;   manhole
MH_920_35	3.700000	5.700000	0.000000	0.000000	0.000000
;   manhole
MH_920_36	2.800000	8.500000	0.000000	0.000000	0.000000
;   manhole
MH_920_37	3.300000	6.300000	0.000000	0.000000	0.000000
;   manhole
MH_920_38	1.500000	9.700000	0.000000	0.000000	0.000000
;   manhole
MH_920_39	-0.600000	6.700000	0.000000	0.000000	0.000000
;   manhole
MH_920_4	6.600000	4.900000	0.000000	0.000000	0.000000
;   manhole
MH_920_40	-1.100000	8.600000	0.000000	0.000000	0.000000
;   manhole
MH_920_41	3.200000	7.200000	0.000000	0.000000	0.000000
;   manhole
MH_920_42	2.600000	8.000000	0.000000	0.000000	0.000000
;   manhole
MH_920_43	5.300000	6.000000	0.000000	0.000000	0.000000
;   manhole
MH_920_44	1.800000	8.500000	0.000000	0.000000	0.000000
;   manhole
MH_920_45	1.300000	8.600000	0.000000	0.000000	0.000000
;   manhole
MH_920_46	-2.900000	7.000000	0.000000	0.000000	0.000000
;   manhole
MH_920_47	-0.700000	12.400000	0.000000	0.000000	0.000000
;   manhole
MH_920_48	-1.100000	13.200000	0.000000	0.000000	0.000000
;   manhole
MH_920_49	-1.900000	10.100000	0.000000	0.000000	0.000000
;   manhole
MH_920_5	8.400000	4.000000	0.000000	0.000000	0.000000
;   manhole
MH_920_50	-4.000000	9.400000	0.000000	0.000000	0.000000
;   manhole
MH_920_51	0.100000	6.500000	0.000000	0.000000	0.000000
;   manhole
MH_920_52	0.700000	3.600000	0.000000	0.000000	0.000000
;   manhole
MH_920_53	-2.700000	12.600000	0.000000	0.000000	0.000000
;   manhole
MH_920_54	-0.900000	4.400000	0.000000	0.000000	0.000000
;   manhole
MH_920_55	-3.300000	6.300000	0.000000	0.000000	0.000000
;   manhole
MH_920_57	5.500000	6.100000	0.000000	0.000000	0.000000
;   manhole
MH_920_58	6.100000	8.700000	0.000000	0.000000	0.000000
;   manhole
MH_920_59	5.500000	8.400000	0.000000	0.000000	0.000000
;   manhole
MH_920_6	10.300000	3.700000	0.000000	0.000000	0.000000
;   manhole
MH_920_60	5.000000	7.700000	0.000000	0.000000	0.000000
;   manhole
MH_920_61	4.300000	7.900000	0.000000	0.000000	0.000000
;   manhole
MH_920_62	-5.300000	9.500000	0.000000	0.000000	0.000000
;   manhole
MH_920_63	-4.500000	10.900000	0.000000	0.000000	0.000000
;   manhole
MH_920_64	-3.400000	11.400000	0.000000	0.000000	0.000000
;   manhole
MH_920_65	-2.200000	9.800000	0.000000	0.000000	0.000000
;   manhole
MH_920_66	-1.700000	10.500000	0.000000	0.000000	0.000000
;   manhole
MH_920_7	7.700000	12.700000	0.000000	0.000000	0.000000
;   manhole
MH_920_8	7.000000	6.600000	0.000000	0.000000	0.000000
;   manhole
MH_920_9	-0.700000	9.200000	0.000000	0.000000	0.000000
;   manhole
MH_928_105	6.400000	10.800000	0.000000	0.000000	0.000000
;   manhole
MH_928_107	14.600000	1.100000	0.000000	0.000000	0.000000
;   manhole
MH_928_118	7.700000	9.700000	0.000000	0.000000	0.000000
;   manhole
MH_928_13	18.500000	7.200000	0.000000	0.000000	0.000000
;   manhole
MH_928_18	2.200000	14.800000	0.000000	0.000000	0.000000
;   manhole
MH_928_27	28.100000	3.200000	0.000000	0.000000	0.000000
;   manhole
MH_928_28	18.700000	6.800000	0.000000	0.000000	0.000000
;   manhole
MH_928_36	12.600000	3.100000	0.000000	0.000000	0.000000
;   manhole
MH_928_43	12.200000	4.700000	0.000000	0.000000	0.000000
;   manhole
MH_928_47	11.800000	3.800000	0.000000	0.000000	0.000000
;   manhole
MH_928_49	12.100000	3.700000	0.000000	0.000000	0.000000
;   manhole
MH_928_50	3.500000	13.000000	0.000000	0.000000	0.000000
;   manhole
MH_928_53	11.400000	4.300000	0.000000	0.000000	0.000000
;   manhole
MH_928_58	10.700000	5.200000	0.000000	0.000000	0.000000
;   manhole
MH_928_6	17.000000	8.700000	0.000000	0.000000	0.000000
;   manhole
MH_928_65	11.100000	7.300000	0.000000	0.000000	0.000000
;   manhole
MH_928_66	13.400000	5.400000	0.000000	0.000000	0.000000
;   manhole
MH_928_67	4.800000	12.700000	0.000000	0.000000	0.000000
;   manhole
MH_928_69	10.000000	6.300000	0.000000	0.000000	0.000000
;   manhole
MH_928_76	9.300000	7.800000	0.000000	0.000000	0.000000
;   manhole
MH_928_81	10.100000	5.000000	0.000000	0.000000	0.000000
;   manhole
MH_928_86	12.300000	3.400000	0.000000	0.000000	0.000000
;   manhole
MH_928_87	9.000000	10.100000	0.000000	0.000000	0.000000
;   manhole
MH_928_88	11.300000	6.200000	0.000000	0.000000	0.000000
;   manhole
MH_928_89	8.800000	10.000000	0.000000	0.000000	0.000000
;   manhole
MH_928_90	7.600000	10.500000	0.000000	0.000000	0.000000
;   manhole
MH_928_91	10.600000	8.200000	0.000000	0.000000	0.000000
;   manhole
MH_928_92	5.700000	11.400000	0.000000	0.000000	0.000000
;   manhole
MH_928_98	13.000000	6.900000	0.000000	0.000000	0.000000
;   manhole
MH_929_1	4.300000	4.900000	0.000000	0.000000	0.000000
;   manhole
MH_929_10	0.700000	11.300000	0.000000	0.000000	0.000000
;   manhole
MH_929_100	14.800000	9.100000	0.000000	0.000000	0.000000
;   manhole
MH_929_101	14.000000	8.700000	0.000000	0.000000	0.000000
;   manhole
MH_929_102	12.700000	9.800000	0.000000	0.000000	0.000000
;   manhole
MH_929_103	12.500000	8.900000	0.000000	0.000000	0.000000
;   manhole
MH_929_104	11.000000	9.000000	0.000000	0.000000	0.000000
;   manhole
MH_929_105	7.000000	9.800000	0.000000	0.000000	0.000000
;   manhole
MH_929_106	8.700000	9.000000	0.000000	0.000000	0.000000
;   manhole
MH_929_107	6.000000	10.000000	0.000000	0.000000	0.000000
;   manhole
MH_929_108	5.100000	10.100000	0.000000	0.000000	0.000000
;   manhole
MH_929_109	1.600000	13.600000	0.000000	0.000000	0.000000
;   manhole
MH_929_11	4.500000	11.100000	0.000000	0.000000	0.000000
;   manhole
MH_929_110	1.400000	12.800000	0.000000	0.000000	0.000000
;   manhole
MH_929_111	0.600000	13.400000	0.000000	0.000000	0.000000
;   manhole
MH_929_112	0.100000	12.600000	0.000000	0.000000	0.000000
;   manhole
MH_929_114	2.100000	7.100000	0.000000	0.000000	0.000000
;   manhole
MH_929_115	13.600000	8.300000	0.000000	0.000000	0.000000
;   manhole
MH_929_116	12.100000	8.000000	0.000000	0.000000	0.000000
;   manhole
MH_929_118	12.000000	3.800000	0.000000	0.000000	0.000000
;   manhole
MH_929_119	6.100000	7.700000	0.000000	0.000000	0.000000
;   manhole
MH_929_12	2.400000	10.600000	0.000000	0.000000	0.000000
;   manhole
MH_929_120	9.600000	8.000000	0.000000	0.000000	0.000000
;   manhole
MH_929_121	3.100000	4.300000	0.000000	0.000000	0.000000
;   manhole
MH_929_122	10.100000	8.500000	0.000000	0.000000	0.000000
;   manhole
MH_929_123	12.000000	3.800000	0.000000	0.000000	0.000000
;   manhole
MH_929_124	13.000000	7.700000	0.000000	0.000000	0.000000
;   manhole
MH_929_125	14.400000	7.800000	0.000000	0.000000	0.000000
;   manhole
MH_929_126	7.300000	4.000000	0.000000	0.000000	0.000000
;   manhole
MH_929_128	10.400000	8.500000	0.000000	0.000000	0.000000
;   manhole
MH_929_13	3.100000	8.300000	0.000000	0.000000	0.000000
;   manhole
MH_929_130	4.600000	4.900000	0.000000	0.000000	0.000000
;   manhole
MH_929_131	3.400000	7.100000	0.000000	0.000000	0.000000
;   manhole
MH_929_132	18.400000	5.400000	0.000000	0.000000	0.000000
;   manhole
MH_929_133	2.100000	8.000000	0.000000	0.000000	0.000000
;   manhole
MH_929_134	17.800000	5.600000	0.000000	0.000000	0.000000
;   manhole
MH_929_135	17.200000	5.700000	0.000000	0.000000	0.000000
;   manhole
MH_929_136	15.600000	6.400000	0.000000	0.000000	0.000000
;   manhole
MH_929_137	14.700000	6.200000	0.000000	0.000000	0.000000
;   manhole
MH_929_138	1.200000	12.600000	0.000000	0.000000	0.000000
;   manhole
MH_929_14	15.200000	2.200000	0.000000	0.000000	0.000000
;   manhole
MH_929_140	11.300000	7.300000	0.000000	0.000000	0.000000
;   manhole
MH_929_142	9.800000	5.600000	0.000000	0.000000	0.000000
;   manhole
MH_929_143	11.200000	5.400000	0.000000	0.000000	0.000000
;   manhole
MH_929_144	18.400000	4.900000	0.000000	0.000000	0.000000
;   manhole
MH_929_145	18.200000	5.200000	0.000000	0.000000	0.000000
;   manhole
MH_929_146	8.900000	4.500000	0.000000	0.000000	0.000000
;   manhole
MH_929_147	12.000000	4.500000	0.000000	0.000000	0.000000
;   manhole
MH_929_148	7.500000	6.800000	0.000000	0.000000	0.000000
;   manhole
MH_929_149	0.600000	14.400000	0.000000	0.000000	0.000000
;   manhole
MH_929_15	5.100000	12.600000	0.000000	0.000000	0.000000
;   manhole
MH_929_150	9.000000	5.600000	0.000000	0.000000	0.000000
;   manhole
MH_929_151	19.100000	4.200000	0.000000	0.000000	0.000000
;   manhole
MH_929_152	19.400000	4.000000	0.000000	0.000000	0.000000
;   manhole
MH_929_153	13.000000	4.100000	0.000000	0.000000	0.000000
;   manhole
MH_929_154	17.300000	4.400000	0.000000	0.000000	0.000000
;   manhole
MH_929_155	16.500000	3.800000	0.000000	0.000000	0.000000
;   manhole
MH_929_158	3.000000	8.200000	0.000000	0.000000	0.000000
;   manhole
MH_929_16	4.600000	11.600000	0.000000	0.000000	0.000000
;   manhole
MH_929_161	0.000000	15.900000	0.000000	0.000000	0.000000
;   manhole
MH_929_162	13.100000	8.400000	0.000000	0.000000	0.000000
;   manhole
MH_929_164	11.200000	6.800000	0.000000	0.000000	0.000000
;   manhole
MH_929_165	7.600000	8.600000	0.000000	0.000000	0.000000
;   manhole
MH_929_166	10.000000	7.500000	0.000000	0.000000	0.000000
;   manhole
MH_929_167	8.800000	7.200000	0.000000	0.000000	0.000000
;   manhole
MH_929_168	7.900000	7.400000	0.000000	0.000000	0.000000
;   manhole
MH_929_169	16.800000	3.100000	0.000000	0.000000	0.000000
;   manhole
MH_929_17	16.200000	4.600000	0.000000	0.000000	0.000000
;   manhole
MH_929_171	0.000000	16.000000	0.000000	0.000000	0.000000
;   manhole
MH_929_174	11.000000	5.400000	0.000000	0.000000	0.000000
;   manhole
MH_929_175	2.100000	8.300000	0.000000	0.000000	0.000000
;   manhole
MH_929_176	14.200000	3.800000	0.000000	0.000000	0.000000
;   manhole
MH_929_177	17.200000	3.000000	0.000000	0.000000	0.000000
;   manhole
MH_929_18	26.300000	0.800000	0.000000	0.000000	0.000000
;   manhole
MH_929_180	6.600000	9.600000	0.000000	0.000000	0.000000
;   manhole
MH_929_181	13.900000	3.400000	0.000000	0.000000	0.000000
;   manhole
MH_929_182	14.800000	3.600000	0.000000	0.000000	0.000000
;   manhole
MH_929_184	-0.700000	18.200000	0.000000	0.000000	0.000000
;   manhole
MH_929_188	12.500000	5.100000	0.000000	0.000000	0.000000
;   manhole
MH_929_19	10.300000	10.700000	0.000000	0.000000	0.000000
;   manhole
MH_929_190	13.100000	4.800000	0.000000	0.000000	0.000000
;   manhole
MH_929_196	5.500000	12.000000	0.000000	0.000000	0.000000
;   manhole
MH_929_198	-2.000000	10.100000	0.000000	0.000000	0.000000
;   manhole
MH_929_199	-2.900000	8.900000	0.000000	0.000000	0.000000
;   manhole
MH_929_2	12.100000	4.100000	0.000000	0.000000	0.000000
;   manhole
MH_929_20	1.100000	6.700000	0.000000	0.000000	0.000000
;   manhole
MH_929_201	17.300000	2.800000	0.000000	0.000000	0.000000
;   manhole
MH_929_204	5.700000	6.900000	0.000000	0.000000	0.000000
;   manhole
MH_929_205	14.400000	4.100000	0.000000	0.000000	0.000000
;   manhole
MH_929_206	15.500000	4.000000	0.000000	0.000000	0.000000
;   manhole
MH_929_207	14.000000	3.800000	0.000000	0.000000	0.000000
;   manhole
MH_929_209	-1.700000	11.500000	0.000000	0.000000	0.000000
;   manhole
MH_929_21	5.800000	10.200000	0.000000	0.000000	0.000000
;   manhole
MH_929_211	17.300000	3.000000	0.000000	0.000000	0.000000
;   manhole
MH_929_212	6.500000	8.000000	0.000000	0.000000	0.000000
;   manhole
MH_929_213	7.600000	8.400000	0.000000	0.000000	0.000000
;   manhole
MH_929_214	-0.200000	15.000000	0.000000	0.000000	0.000000
;   manhole
MH_929_217	8.700000	9.000000	0.000000	0.000000	0.000000
;   manhole
MH_929_218	15.900000	3.600000	0.000000	0.000000	0.000000
;   manhole
MH_929_22	4.200000	8.000000	0.000000	0.000000	0.000000
;   manhole
MH_929_221	-0.200000	16.400000	0.000000	0.000000	0.000000
;   manhole
MH_929_223	8.700000	9.000000	0.000000	0.000000	0.000000
;   manhole
MH_929_224	15.600000	4.000000	0.000000	0.000000	0.000000
;   manhole
MH_929_226	12.800000	5.700000	0.000000	0.000000	0.000000
;   manhole
MH_929_227	11.000000	6.500000	0.000000	0.000000	0.000000
;   manhole
MH_929_23	6.000000	12.300000	0.000000	0.000000	0.000000
;   manhole
MH_929_230	1.600000	11.800000	0.000000	0.000000	0.000000
;   manhole
MH_929_239	0.800000	15.600000	0.000000	0.000000	0.000000
;   manhole
MH_929_24	7.500000	10.300000	0.000000	0.000000	0.000000
;   manhole
MH_929_240	15.400000	9.100000	0.000000	0.000000	0.000000
;   manhole
MH_929_25	14.700000	5.600000	0.000000	0.000000	0.000000
;   manhole
MH_929_26	5.600000	12.200000	0.000000	0.000000	0.000000
;   manhole
MH_929_27	19.100000	4.100000	0.000000	0.000000	0.000000
;   manhole
MH_929_28	11.500000	8.000000	0.000000	0.000000	0.000000
;   manhole
MH_929_29	13.000000	8.000000	0.000000	0.000000	0.000000
;   manhole
MH_929_3	15.200000	2.100000	0.000000	0.000000	0.000000
;   manhole
MH_929_30	8.000000	8.000000	0.000000	0.000000	0.000000
;   manhole
MH_929_32	18.800000	5.600000	0.000000	0.000000	0.000000
;   manhole
MH_929_33	16.900000	5.500000	0.000000	0.000000	0.000000
;   manhole
MH_929_34	14.100000	8.000000	0.000000	0.000000	0.000000
;   manhole
MH_929_35	12.900000	7.200000	0.000000	0.000000	0.000000
;   manhole
MH_929_36	6.400000	12.600000	0.000000	0.000000	0.000000
;   manhole
MH_929_37	12.800000	9.300000	0.000000	0.000000	0.000000
;   manhole
MH_929_38	11.400000	9.300000	0.000000	0.000000	0.000000
;   manhole
MH_929_39	10.100000	9.200000	0.000000	0.000000	0.000000
;   manhole
MH_929_4	25.300000	1.200000	0.000000	0.000000	0.000000
;   manhole
MH_929_40	7.000000	5.900000	0.000000	0.000000	0.000000
;   manhole
MH_929_44	5.900000	6.500000	0.000000	0.000000	0.000000
;   manhole
MH_929_46	5.900000	6.400000	0.000000	0.000000	0.000000
;   manhole
MH_929_47	20.000000	5.900000	0.000000	0.000000	0.000000
;   manhole
MH_929_48	18.100000	5.400000	0.000000	0.000000	0.000000
;   manhole
MH_929_49	17.800000	5.200000	0.000000	0.000000	0.000000
;   manhole
MH_929_5	4.300000	10.500000	0.000000	0.000000	0.000000
;   manhole
MH_929_50	15.900000	5.100000	0.000000	0.000000	0.000000
;   manhole
MH_929_51	7.400000	12.600000	0.000000	0.000000	0.000000
;   manhole
MH_929_52	8.200000	10.400000	0.000000	0.000000	0.000000
;   manhole
MH_929_53	9.000000	7.900000	0.000000	0.000000	0.000000
;   manhole
MH_929_54	9.800000	4.800000	0.000000	0.000000	0.000000
;   manhole
MH_929_56	21.000000	4.600000	0.000000	0.000000	0.000000
;   manhole
MH_929_57	5.000000	6.600000	0.000000	0.000000	0.000000
;   manhole
MH_929_58	7.000000	5.800000	0.000000	0.000000	0.000000
;   manhole
MH_929_59	15.200000	4.900000	0.000000	0.000000	0.000000
;   manhole
MH_929_6	0.500000	11.000000	0.000000	0.000000	0.000000
;   manhole
MH_929_63	4.600000	6.500000	0.000000	0.000000	0.000000
;   manhole
MH_929_64	9.000000	5.600000	0.000000	0.000000	0.000000
;   manhole
MH_929_65	7.800000	5.600000	0.000000	0.000000	0.000000
;   manhole
MH_929_66	6.600000	5.800000	0.000000	0.000000	0.000000
;   manhole
MH_929_67	13.300000	8.100000	0.000000	0.000000	0.000000
;   manhole
MH_929_68	14.100000	6.400000	0.000000	0.000000	0.000000
;   manhole
MH_929_69	19.600000	4.900000	0.000000	0.000000	0.000000
;   manhole
MH_929_7	3.800000	6.600000	0.000000	0.000000	0.000000
;   manhole
MH_929_70	10.800000	10.500000	0.000000	0.000000	0.000000
;   manhole
MH_929_71	10.814752	5.100000	0.000000	0.000000	0.000000
;   manhole
MH_929_72	17.700000	5.400000	0.000000	0.000000	0.000000
;   manhole
MH_929_73	16.500000	5.600000	0.000000	0.000000	0.000000
;   manhole
MH_929_74	15.200000	6.000000	0.000000	0.000000	0.000000
;   manhole
MH_929_75	11.000000	4.900000	0.000000	0.000000	0.000000
;   manhole
MH_929_77	10.800000	3.600000	0.000000	0.000000	0.000000
;   manhole
MH_929_78	16.400000	4.300000	0.000000	0.000000	0.000000
;   manhole
MH_929_8	5.800000	4.500000	0.000000	0.000000	0.000000
;   manhole
MH_929_80	18.900000	6.500000	0.000000	0.000000	0.000000
;   manhole
MH_929_81	9.500000	4.400000	0.000000	0.000000	0.000000
;   manhole
MH_929_82	17.900000	5.400000	0.000000	0.000000	0.000000
;   manhole
MH_929_84	17.100000	5.500000	0.000000	0.000000	0.000000
;   manhole
MH_929_85	8.000000	5.100000	0.000000	0.000000	0.000000
;   manhole
MH_929_86	6.300000	5.600000	0.000000	0.000000	0.000000
;   manhole
MH_929_87	15.500000	6.200000	0.000000	0.000000	0.000000
;   manhole
MH_929_88	13.900000	7.400000	0.000000	0.000000	0.000000
;   manhole
MH_929_89	13.300000	8.100000	0.000000	0.000000	0.000000
;   manhole
MH_929_9	1.900000	10.800000	0.000000	0.000000	0.000000
;   manhole
MH_929_90	10.500000	7.600000	0.000000	0.000000	0.000000
;   manhole
MH_929_91	9.900000	7.200000	0.000000	0.000000	0.000000
;   manhole
MH_929_92	8.300000	7.600000	0.000000	0.000000	0.000000
;   manhole
MH_929_93	17.000000	4.200000	0.000000	0.000000	0.000000
;   manhole
MH_929_99	15.900000	8.500000	0.000000	0.000000	0.000000
;   manhole
MH_930_1	-8.700000	12.200000	0.000000	0.000000	0.000000
;   manhole
MH_930_100	10.600000	4.400000	0.000000	0.000000	0.000000
;   manhole
MH_930_101	8.700000	3.500000	0.000000	0.000000	0.000000
;   manhole
MH_930_102	8.300000	3.100000	0.000000	0.000000	0.000000
;   manhole
MH_930_103	7.700000	3.000000	0.000000	0.000000	0.000000
;   manhole
MH_930_104	11.400000	7.200000	0.000000	0.000000	0.000000
;   manhole
MH_930_105	12.700000	4.000000	0.000000	0.000000	0.000000
;   manhole
MH_930_106	12.400000	4.300000	0.000000	0.000000	0.000000
;   manhole
MH_930_107	12.700000	6.700000	0.000000	0.000000	0.000000
;   manhole
MH_930_108	11.400000	6.700000	0.000000	0.000000	0.000000
;   manhole
MH_930_109	9.200000	5.000000	0.000000	0.000000	0.000000
;   manhole
MH_930_110	6.200000	4.600000	0.000000	0.000000	0.000000
;   manhole
MH_930_111	11.700000	4.300000	0.000000	0.000000	0.000000
;   manhole
MH_930_112	10.000000	7.600000	0.000000	0.000000	0.000000
;   manhole
MH_930_113	11.400000	4.500000	0.000000	0.000000	0.000000
;   manhole
MH_930_114	8.000000	3.600000	0.000000	0.000000	0.000000
;   manhole
MH_930_115	9.000000	9.000000	0.000000	0.000000	0.000000
;   manhole
MH_930_116	6.600000	4.600000	0.000000	0.000000	0.000000
;   manhole
MH_930_117	8.600000	8.900000	0.000000	0.000000	0.000000
;   manhole
MH_930_118	8.200000	7.600000	0.000000	0.000000	0.000000
;   manhole
MH_930_119	8.000000	5.400000	0.000000	0.000000	0.000000
;   manhole
MH_930_120	7.900000	1.100000	0.000000	0.000000	0.000000
;   manhole
MH_930_121	9.800000	6.400000	0.000000	0.000000	0.000000
;   manhole
MH_930_122	6.000000	4.100000	0.000000	0.000000	0.000000
;   manhole
MH_930_123	4.500000	4.800000	0.000000	0.000000	0.000000
;   manhole
MH_930_124	2.500000	3.500000	0.000000	0.000000	0.000000
;   manhole
MH_930_125	8.100000	5.600000	0.000000	0.000000	0.000000
;   manhole
MH_930_126	5.500000	4.900000	0.000000	0.000000	0.000000
;   manhole
MH_930_127	6.800000	5.400000	0.000000	0.000000	0.000000
;   manhole
MH_930_128	9.000000	6.500000	0.000000	0.000000	0.000000
;   manhole
MH_930_129	3.900000	4.300000	0.000000	0.000000	0.000000
;   manhole
MH_930_130	8.300000	6.400000	0.000000	0.000000	0.000000
;   manhole
MH_930_131	5.300000	6.800000	0.000000	0.000000	0.000000
;   manhole
MH_930_132	3.900000	6.000000	0.000000	0.000000	0.000000
;   manhole
MH_930_133	2.400000	5.700000	0.000000	0.000000	0.000000
;   manhole
MH_930_134	-0.800000	7.800000	0.000000	0.000000	0.000000
;   manhole
MH_930_135	-2.000000	7.800000	0.000000	0.000000	0.000000
;   manhole
MH_930_136	16.500000	4.300000	0.000000	0.000000	0.000000
;   manhole
MH_930_137	12.100000	4.000000	0.000000	0.000000	0.000000
;   manhole
MH_930_138	9.300000	4.100000	0.000000	0.000000	0.000000
;   manhole
MH_930_139	17.200000	3.400000	0.000000	0.000000	0.000000
;   manhole
MH_930_140	0.300000	5.800000	0.000000	0.000000	0.000000
;   manhole
MH_930_141	-2.600000	7.600000	0.000000	0.000000	0.000000
;   manhole
MH_930_142	15.600000	4.300000	0.000000	0.000000	0.000000
;   manhole
MH_930_143	15.000000	1.500000	0.000000	0.000000	0.000000
;   manhole
MH_930_144	12.200000	4.900000	0.000000	0.000000	0.000000
;   manhole
MH_930_145	7.800000	5.300000	0.000000	0.000000	0.000000
;   manhole
MH_930_146	9.100000	5.900000	0.000000	0.000000	0.000000
;   manhole
MH_930_147	7.200000	5.900000	0.000000	0.000000	0.000000
;   manhole
MH_930_148	1.400000	4.300000	0.000000	0.000000	0.000000
;   manhole
MH_930_149	15.600000	3.600000	0.000000	0.000000	0.000000
;   manhole
MH_930_150	-3.400000	8.200000	0.000000	0.000000	0.000000
;   manhole
MH_930_151	14.300000	4.500000	0.000000	0.000000	0.000000
;   manhole
MH_930_152	1.700000	4.600000	0.000000	0.000000	0.000000
;   manhole
MH_930_153	7.500000	5.200000	0.000000	0.000000	0.000000
;   manhole
MH_930_154	19.200000	4.100000	0.000000	0.000000	0.000000
;   manhole
MH_930_155	6.400000	6.200000	0.000000	0.000000	0.000000
;   manhole
MH_930_156	17.200000	4.100000	0.000000	0.000000	0.000000
;   manhole
MH_930_157	15.400000	3.900000	0.000000	0.000000	0.000000
;   manhole
MH_930_158	13.600000	4.400000	0.000000	0.000000	0.000000
;   manhole
MH_930_159	10.500000	3.500000	0.000000	0.000000	0.000000
;   manhole
MH_930_160	12.300000	3.200000	0.000000	0.000000	0.000000
;   manhole
MH_930_161	2.600000	4.400000	0.000000	0.000000	0.000000
;   manhole
MH_930_162	19.700000	4.900000	0.000000	0.000000	0.000000
;   manhole
MH_930_163	19.000000	4.000000	0.000000	0.000000	0.000000
;   manhole
MH_930_164	16.100000	5.100000	0.000000	0.000000	0.000000
;   manhole
MH_930_165	15.400000	6.600000	0.000000	0.000000	0.000000
;   manhole
MH_930_166	5.200000	7.600000	0.000000	0.000000	0.000000
;   manhole
MH_930_167	10.100000	10.800000	0.000000	0.000000	0.000000
;   manhole
MH_930_168	9.200000	9.300000	0.000000	0.000000	0.000000
;   manhole
MH_930_169	17.100000	9.200000	0.000000	0.000000	0.000000
;   manhole
MH_930_170	9.200000	9.300000	0.000000	0.000000	0.000000
;   manhole
MH_930_171	11.400000	11.900000	0.000000	0.000000	0.000000
;   manhole
MH_930_172	11.100000	11.700000	0.000000	0.000000	0.000000
;   manhole
MH_930_173	6.800000	7.800000	0.000000	0.000000	0.000000
;   manhole
MH_930_174	6.600000	6.100000	0.000000	0.000000	0.000000
;   manhole
MH_930_175	4.800000	7.300000	0.000000	0.000000	0.000000
;   manhole
MH_930_176	6.400000	5.900000	0.000000	0.000000	0.000000
;   manhole
MH_930_177	7.600000	3.300000	0.000000	0.000000	0.000000
;   manhole
MH_930_178	3.700000	4.600000	0.000000	0.000000	0.000000
;   manhole
MH_930_179	-5.400000	18.800000	0.000000	0.000000	0.000000
;   manhole
MH_930_2	-8.500000	11.700000	0.000000	0.000000	0.000000
;   manhole
MH_930_3	1.400000	5.400000	0.000000	0.000000	0.000000
;   manhole
MH_930_4	4.500000	5.700000	0.000000	0.000000	0.000000
;   manhole
MH_930_46	-7.100000	11.800000	0.000000	0.000000	0.000000
;   manhole
MH_930_47	-6.200000	13.300000	0.000000	0.000000	0.000000
;   manhole
MH_930_48	-6.300000	13.600000	0.000000	0.000000	0.000000
;   manhole
MH_930_5	11.000000	4.200000	0.000000	0.000000	0.000000
;   manhole
MH_930_6	8.600000	5.200000	0.000000	0.000000	0.000000
;   manhole
MH_930_96	5.600000	7.800000	0.000000	0.000000	0.000000
;   manhole
MH_930_97	6.100000	7.500000	0.000000	0.000000	0.000000
;   manhole
MH_930_98	4.000000	8.200000	0.000000	0.000000	0.000000
;   manhole
MH_930_99	2.300000	8.100000	0.000000	0.000000	0.000000

[OUTFALLS]
;  New Outfall
OFALL-12	5.000000	FIXED	10.000000	NO
WW-147_BC	-10.700000	FREE	NO
WW-232_OUTFALL	-6.000000	TIMESERIES	WW-232_BC_TS	NO

[DIVIDERS]

[STORAGE]
WW-1002	5.300000	10.000000	3.000000	FUNCTIONAL	78.540000	0.000000	0.000000	0.000000	0.000000
WW-1003	1.600000	10.000000	3.000000	FUNCTIONAL	78.540000	0.000000	0.000000	0.000000	0.000000
WW-147	-10.700000	20.300000	10.000000	FUNCTIONAL	28.270000	0.000000	0.000000	0.000000	0.000000
WW-220	-13.400000	19.400000	4.400000	FUNCTIONAL	100.000000	0.000000	0.000000	0.000000	0.000000
WW-221	-5.600000	13.600000	2.900000	FUNCTIONAL	50.270000	0.000000	0.000000	0.000000	0.000000
WW-222	5.000000	10.000000	3.000000	FUNCTIONAL	28.270000	0.000000	0.000000	0.000000	0.000000
WW-223	-5.400000	15.400000	2.700000	FUNCTIONAL	28.270000	0.000000	0.000000	0.000000	0.000000
WW-224	-4.300000	15.300000	2.800000	FUNCTIONAL	28.270000	0.000000	0.000000	0.000000	0.000000
WW-225	-11.000000	16.200000	5.500000	FUNCTIONAL	50.270000	0.000000	0.000000	0.000000	0.000000
WW-226	-1.700000	13.900000	5.100000	FUNCTIONAL	103.870000	0.000000	0.000000	0.000000	0.000000
WW-227	-1.300000	9.600000	3.600000	FUNCTIONAL	100.000000	0.000000	0.000000	0.000000	0.000000
WW-228	2.600000	17.000000	2.000000	FUNCTIONAL	19.630000	0.000000	0.000000	0.000000	0.000000
WW-229	-6.800000	11.800000	3.000000	FUNCTIONAL	28.270000	0.000000	0.000000	0.000000	0.000000
WW-230	-8.700000	13.200000	5.500000	FUNCTIONAL	50.270000	0.000000	0.000000	0.000000	0.000000
WW-231	-7.000000	11.500000	3.100000	FUNCTIONAL	28.270000	0.000000	0.000000	0.000000	0.000000
WW-232	-5.000000	12.000000	10.000000	FUNCTIONAL	28.270000	0.000000	0.000000	0.000000	0.000000
WW-242	-1.000000	13.300000	4.500000	FUNCTIONAL	28.270000	0.000000	0.000000	0.000000	0.000000
WW-243	1.300000	16.400000	3.000000	FUNCTIONAL	28.270000	0.000000	0.000000	0.000000	0.000000
WW-246	-1.700000	19.600000	3.700000	FUNCTIONAL	28.270000	0.000000	0.000000	0.000000	0.000000
WW-247	-11.200000	18.200000	2.000000	FUNCTIONAL	12.570000	0.000000	0.000000	0.000000	0.000000
WW-250	-2.200000	13.700000	2.700000	FUNCTIONAL	12.570000	0.000000	0.000000	0.000000	0.000000
WW-251	-6.500000	15.000000	3.600000	FUNCTIONAL	28.270000	0.000000	0.000000	0.000000	0.000000
WW-258	5.400000	10.000000	3.000000	FUNCTIONAL	12.570000	0.000000	0.000000	0.000000	0.000000

[CONDUITS]
; Forcemain
FM-824_1	JN_824_1	JN_824_10	747.800669	0.010000	0.000000	0.000000	0.000000	0.000000
; Forcemain
FM-824_10	JN_824_10	MH_919_2	2831.235839	0.010000	0.000000	0.000000	0.000000	0.000000
; Forcemain
FM-824_2	JN_824_2	MH_824_51	673.446539	0.010000	0.000000	0.000000	0.000000	0.000000
; Forcemain
FM-824_20	JN_824_20	MH_824_105	1155.320667	0.010000	0.000000	0.000000	0.000000	0.000000
; Forcemain
FM-824_21	JN_824_21	JN_824_22	219.600441	0.010000	0.000000	0.000000	0.000000	0.000000
; Forcemain
FM-824_22	JN_824_22	JN_824_25	863.957844	0.010000	0.000000	0.000000	0.000000	0.000000
; Forcemain
FM-824_25	JN_824_25	MH_919_9	622.239376	0.010000	0.000000	0.000000	0.000000	0.000000
; Forcemain
FM-824_26	JN_824_26	MH_824_160	26.684991	0.010000	0.000000	0.000000	0.000000	0.000000
; Forcemain
FM-824_8	JN_824_8	JN_824_10	1048.000001	0.010000	0.000000	0.000000	0.000000	0.000000
; Forcemain
FM-825_10	JN_825_10	JN_824_25	1582.146091	0.010000	0.000000	0.000000	0.000000	0.000000
; Forcemain
FM-825_6	JN_825_6	JN_824_21	732.867742	0.020000	0.000000	0.000000	0.000000	0.000000
; Forcemain
FM-825_7	JN_825_7	JN_824_22	770.449020	0.010000	0.000000	0.000000	0.000000	0.000000
; Forcemain
FM-919_22	JN_919_22	JN_930_28	2702.319665	0.010000	0.000000	0.000000	0.000000	0.000000
; Forcemain
FM-919_26	JN_919_26	JN_919_22	340.092282	0.010000	0.000000	0.000000	0.000000	0.000000
; Forcemain
FM-919_3	JN_919_3	MH_919_60	1686.001911	0.010000	0.000000	0.000000	0.000000	0.000000
; Forcemain
FM-919_9	JN_919_9	JN_919_22	2577.753273	0.010000	0.000000	0.000000	0.000000	0.000000
; Forcemain
FM-920_1	JN_920_1	JN_930_28	1323.696704	0.010000	0.000000	0.000000	0.000000	0.000000
; Forcemain
FM-920_12	JN_920_12	JN_929_19	2187.781238	0.020000	0.000000	0.000000	0.000000	0.000000
; Forcemain
FM-920_23	JN_920_23	WW-230	849.462412	0.010000	0.000000	0.000000	0.000000	0.000000
; Forcemain
FM-929_19	JN_929_19	MH_929_54	1040.474293	0.020000	0.000000	0.000000	0.000000	0.000000
; Forcemain
FM-929_40	JN_929_40	MH_929_155	720.967166	0.010000	0.000000	0.000000	0.000000	0.000000
; Forcemain
FM-929_43	JN_929_43	JN_929_19	2086.880439	0.010000	0.000000	0.000000	0.000000	0.000000
; Forcemain
FM-929_5	JN_929_5	MH_929_44	445.112346	0.010000	0.000000	0.000000	0.000000	0.000000
; Forcemain
FM-930_16	JN_930_16	JN_930_19	1163.213431	0.010000	0.000000	0.000000	0.000000	0.000000
; Forcemain
FM-930_19	JN_930_19	MH_930_101	978.755823	0.010000	0.000000	0.000000	0.000000	0.000000
; Forcemain
FM-930_24	JN_930_24	JN_930_38	1489.088506	0.010000	0.000000	0.000000	0.000000	0.000000
; Forcemain
FM-930_28	JN_930_28	JN_930_24	664.069395	0.010000	0.000000	0.000000	0.000000	0.000000
; Forcemain
FM-930_38	JN_930_38	OFALL-12	1269.825900	0.010000	0.000000	0.000000	0.000000	0.000000
; Forcemain
FM-LS1002	J-1002-OUT	JN_825_7	44.573952	0.010000	0.000000	0.000000	0.000000	0.000000
; Forcemain
FM-LS1003	J-1003-OUT	JN_825_6	12.636935	0.010000	0.000000	0.000000	0.000000	0.000000
; Forcemain
FM-LS147	J-147-OUT	JN_824_1	45.479699	0.010000	0.000000	0.000000	0.000000	0.000000
; Forcemain
FM-LS220	J-220-OUT	JN_930_16	58.974706	0.010000	0.000000	0.000000	0.000000	0.000000
; Forcemain
FM-LS221	J-221-OUT	JN_919_9	212.081871	0.010000	0.000000	0.000000	0.000000	0.000000
; Forcemain
FM-LS222	J-222-OUT	JX-6929	133.232832	0.010000	0.000000	0.000000	0.000000	0.000000
; Forcemain
FM-LS223	J-223-OUT	JN_919_3	258.114331	0.010000	0.000000	0.000000	0.000000	0.000000
; Forcemain
FM-LS224	J-224-OUT	JN_919_26	228.873012	0.010000	0.000000	0.000000	0.000000	0.000000
; Forcemain
FM-LS225	J-225-OUT	JN_920_1	103.209277	0.010000	0.000000	0.000000	0.000000	0.000000
; Forcemain
FM-LS226	J-226-OUT	JN_930_38	305.598082	0.010000	0.000000	0.000000	0.000000	0.000000
; Forcemain
FM-LS227	J-227-OUT	JN_929_5	428.522926	0.010000	0.000000	0.000000	0.000000	0.000000
; Forcemain
FM-LS228	J-228-OUT	JN_929_40	137.550209	0.010000	0.000000	0.000000	0.000000	0.000000
; Forcemain
FM-LS229	J-229-OUT	MH_920_51	241.342830	0.020000	0.000000	0.000000	0.000000	0.000000
; Forcemain
FM-LS230	J-230-OUT	JN_920_12	20.949726	0.020000	0.000000	0.000000	0.000000	0.000000
; Forcemain
FM-LS231	J-231-OUT	JN_920_23	9.961967	0.010000	0.000000	0.000000	0.000000	0.000000
; Forcemain
FM-LS232	J-232-OUT	JN_929_43	39.908726	0.010000	0.000000	0.000000	0.000000	0.000000
; Forcemain
FM-LS242	J-242-OUT	JN_824_20	60.705167	0.010000	0.000000	0.000000	0.000000	0.000000
; Forcemain
FM-LS243	J-243-OUT	JN_824_26	314.040306	0.010000	0.000000	0.000000	0.000000	0.000000
; Forcemain
FM-LS246	J-246-OUT	JN_824_21	56.202806	0.010000	0.000000	0.000000	0.000000	0.000000
; Forcemain
FM-LS247	J-247-OUT	JN_825_10	19.142111	0.010000	0.000000	0.000000	0.000000	0.000000
; Forcemain
FM-LS250	J-250-OUT	JN_824_8	25.255211	0.010000	0.000000	0.000000	0.000000	0.000000
; Forcemain
FM-LS251	J-251-OUT	JN_824_2	44.937611	0.010000	0.000000	0.000000	0.000000	0.000000
; Forcemain
FM-LS258	J-258-OUT	JN_930_24	30.700324	0.010000	0.000000	0.000000	0.000000	0.000000
; Gravity
GM-813_1	MH_813_1	MH_813_2	110.865878	0.010000	0.000000	0.000000	0.000000	0.000000
; Gravity
GM-813_2	MH_813_2	MH_813_3	124.815704	0.010000	0.000000	0.000000	0.000000	0.000000
; Gravity
GM-813_3	MH_813_3	MH_824_148	147.441847	0.010000	0.000000	0.000000	0.000000	0.000000
; Gravity
GM-824_1	MH_824_1	MH_824_2	204.275143	0.010000	0.000000	0.000000	0.000000	0.000000
; Gravity
GM-824_10	MH_824_10	MH_824_13	280.385021	0.010000	0.000000	0.000000	0.000000	0.000000
; Gravity
GM-824_100	MH_824_100	MH_824_98	317.060625	0.010000	0.000000	0.000000	0.000000	0.000000
; Gravity
GM-824_101	MH_824_101	MH_824_97	224.917960	0.010000	0.000000	0.000000	0.000000	0.000000
; Gravity
GM-824_102	MH_824_102	MH_824_104	131.973482	0.010000	0.000000	0.000000	0.000000	0.000000
; Gravity
GM-824_103	MH_824_103	MH_824_99	201.010348	0.010000	0.000000	0.000000	0.000000	0.000000
; Gravity
GM-824_104	MH_824_104	MH_824_90	203.146246	0.010000	0.000000	0.000000	0.000000	0.000000
; Gravity
GM-824_105	MH_824_105	MH_824_106	513.020624	0.010000	0.000000	0.000000	0.000000	0.000000
; Gravity
GM-824_106	MH_824_106	MH_824_108	268.069414	0.010000	0.000000	0.000000	0.000000	0.000000
; Gravity
GM-824_107	MH_824_107	MH_824_108	273.016483	0.010000	0.000000	0.000000	0.000000	0.000000
; Gravity
GM-824_108	MH_824_108	MH_824_121	222.980707	0.010000	0.000000	0.000000	0.000000	0.000000
; Gravity
GM-824_109	MH_824_109	MH_824_116	137.700032	0.010000	0.000000	0.000000	0.000000	0.000000
; Gravity
GM-824_11	MH_824_11	MH_824_12	122.608678	0.010000	0.000000	0.000000	0.000000	0.000000
; Gravity
GM-824_110	MH_824_110	MH_824_88	424.169778	0.010000	0.000000	0.000000	0.000000	0.000000
; Gravity
GM-824_111	MH_824_111	MH_824_104	159.530561	0.010000	0.000000	0.000000	0.000000	0.000000
; Gravity
GM-824_112	MH_824_112	MH_824_110	372.335387	0.010000	0.000000	0.000000	0.000000	0.000000
; Gravity
GM-824_113	MH_824_113	MH_824_100	310.800000	0.010000	0.000000	0.000000	0.000000	0.000000
; Gravity
GM-824_114	MH_824_114	MH_824_116	369.045580	0.010000	0.000000	0.000000	0.000000	0.000000
; Gravity
GM-824_115	MH_824_115	MH_824_133	332.713558	0.010000	0.000000	0.000000	0.000000	0.000000
; Gravity
GM-824_116	MH_824_116	MH_824_128	270.229606	0.010000	0.000000	0.000000	0.000000	0.000000
; Gravity
GM-824_117	MH_824_117	MH_824_113	61.691491	0.010000	0.000000	0.000000	0.000000	0.000000
; Gravity
GM-824_118	MH_824_118	MH_824_117	347.003243	0.010000	0.000000	0.000000	0.000000	0.000000
; Gravity
GM-824_119	MH_824_119	MH_824_126	348.786468	0.010000	0.000000	0.000000	0.000000	0.000000
; Gravity
GM-824_12	MH_824_12	MH_824_14	162.878544	0.010000	0.000000	0.000000	0.000000	0.000000
; Gravity
GM-824_120	MH_824_120	MH_824_124	102.864766	0.010000	0.000000	0.000000	0.000000	0.000000
; Gravity
GM-824_121	MH_824_121	MH_824_126	111.482555	0.010000	0.000000	0.000000	0.000000	0.000000
; Gravity
GM-824_122	MH_824_122	MH_824_123	122.869687	0.010000	0.000000	0.000000	0.000000	0.000000
; Gravity
GM-824_123	MH_824_123	MH_813_1	131.455762	0.010000	0.000000	0.000000	0.000000	0.000000
; Gravity
GM-824_124	MH_824_124	MH_824_119	154.299238	0.010000	0.000000	0.000000	0.000000	0.000000
; Gravity
GM-824_125	MH_824_125	MH_824_122	203.752890	0.010000	0.000000	0.000000	0.000000	0.000000
; Gravity
GM-824_126	MH_824_126	MH_824_125	214.325547	0.010000	0.000000	0.000000	0.000000	0.000000
; Gravity
GM-824_127	MH_824_127	MH_824_110	364.134298	0.010000	0.000000	0.000000	0.000000	0.000000
; Gravity
GM-824_128	MH_824_128	MH_824_140	250.587458	0.010000	0.000000	0.000000	0.000000	0.000000
; Gravity
GM-824_129	MH_824_129	MH_824_127	82.041526	0.010000	0.000000	0.000000	0.000000	0.000000
; Gravity
GM-824_13	MH_824_13	MH_824_19	394.311445	0.010000	0.000000	0.000000	0.000000	0.000000
; Gravity
GM-824_130	MH_824_130	MH_824_124	132.069830	0.010000	0.000000	0.000000	0.000000	0.000000
; Gravity
GM-824_131	MH_824_131	MH_824_129	296.003801	0.010000	0.000000	0.000000	0.000000	0.000000
; Gravity
GM-824_132	MH_824_132	MH_824_133	370.002284	0.010000	0.000000	0.000000	0.000000	0.000000
; Gravity
GM-824_133	MH_824_133	MH_824_141	210.416436	0.010000	0.000000	0.000000	0.000000	0.000000
; Gravity
GM-824_134	MH_824_134	MH_824_137	124.615569	0.010000	0.000000	0.000000	0.000000	0.000000
; Gravity
GM-824_135	MH_824_135	MH_824_136	395.531603	0.010000	0.000000	0.000000	0.000000	0.000000
; Gravity
GM-824_136	MH_824_136	MH_824_139	151.631263	0.010000	0.000000	0.000000	0.000000	0.000000
; Gravity
GM-824_137	MH_824_137	MH_824_146	203.884379	0.010000	0.000000	0.000000	0.000000	0.000000
; Gravity
GM-824_138	MH_824_138	MH_824_145	87.475054	0.010000	0.000000	0.000000	0.000000	0.000000
; Gravity
GM-824_139	MH_824_139	MH_824_155	150.594688	0.010000	0.000000	0.000000	0.000000	0.000000
; Gravity
GM-824_14	MH_824_14	MH_824_17	250.199269	0.010000	0.000000	0.000000	0.000000	0.000000
; Gravity
GM-824_140	MH_824_140	MH_824_153	220.114607	0.010000	0.000000	0.000000	0.000000	0.000000
; Gravity
GM-824_141	MH_824_141	MH_824_142	267.016854	0.010000	0.000000	0.000000	0.000000	0.000000
; Gravity
GM-824_142	MH_824_142	MH_824_140	183.207533	0.010000	0.000000	0.000000	0.000000	0.000000
; Gravity
GM-824_143	MH_824_143	MH_824_144	275.690499	0.010000	0.000000	0.000000	0.000000	0.000000
; Gravity
GM-824_144	MH_824_144	MH_919_5	367.393468	0.010000	0.000000	0.000000	0.000000	0.000000
; Gravity
GM-824_145	MH_824_145	MH_824_151	155.367607	0.010000	0.000000	0.000000	0.000000	0.000000
; Gravity
GM-824_146	MH_824_146	MH_824_156	95.114457	0.010000	0.000000	0.000000	0.000000	0.000000
; Gravity
GM-824_147	MH_824_147	MH_824_149	306.939734	0.010000	0.000000	0.000000	0.000000	0.000000
; Gravity
GM-824_148	MH_824_148	WW-223	58.464622	0.010000	0.000000	0.000000	0.000000	0.000000
; Gravity
GM-824_149	MH_824_149	MH_824_152	240.689094	0.010000	0.000000	0.000000	0.000000	0.000000
; Gravity
GM-824_15	MH_824_15	MH_824_10	399.261343	0.010000	0.000000	0.000000	0.000000	0.000000
; Gravity
GM-824_150	MH_824_150	MH_824_143	86.754910	0.010000	0.000000	0.000000	0.000000	0.000000
; Gravity
GM-824_151	MH_824_151	MH_824_147	165.194469	0.010000	0.000000	0.000000	0.000000	0.000000
; Gravity
GM-824_152	MH_824_152	MH_824_148	127.264325	0.010000	0.000000	0.000000	0.000000	0.000000
; Gravity
GM-824_153	MH_824_153	WW-243	176.273420	0.010000	0.000000	0.000000	0.000000	0.000000
; Gravity
GM-824_154	MH_824_154	MH_824_145	108.840685	0.010000	0.000000	0.000000	0.000000	0.000000
; Gravity
GM-824_155	MH_824_155	MH_824_158	185.344789	0.010000	0.000000	0.000000	0.000000	0.000000
; Gravity
GM-824_156	MH_824_156	MH_824_157	259.156260	0.010000	0.000000	0.000000	0.000000	0.000000
; Gravity
GM-824_157	MH_824_157	MH_824_158	252.005735	0.010000	0.000000	0.000000	0.000000	0.000000
; Gravity
GM-824_158	MH_824_158	MH_824_162	186.524095	0.010000	0.000000	0.000000	0.000000	0.000000
; Gravity
GM-824_159	MH_824_159	MH_824_132	349.305758	0.010000	0.000000	0.000000	0.000000	0.000000
; Gravity
GM-824_16	MH_824_16	MH_824_15	160.665792	0.010000	0.000000	0.000000	0.000000	0.000000
; Gravity
GM-824_160	MH_824_160	MH_919_4	163.714060	0.010000	0.000000	0.000000	0.000000	0.000000
; Gravity
GM-824_161	MH_824_161	MH_824_162	265.001208	0.010000	0.000000	0.000000	0.000000	0.000000
; Gravity
GM-824_162	MH_824_162	MH_919_1	80.045551	0.010000	0.000000	0.000000	0.000000	0.000000
; Gravity
GM-824_163	MH_824_163	MH_824_161	291.004966	0.010000	0.000000	0.000000	0.000000	0.000000
; Gravity
GM-824_164	MH_824_164	MH_824_163	52.269395	0.010000	0.000000	0.000000	0.000000	0.000000
; Gravity
GM-824_17	MH_824_17	MH_824_20	81.106350	0.010000	0.000000	0.000000	0.000000	0.000000
; Gravity
GM-824_18	MH_824_18	MH_824_15	214.552082	0.010000	0.000000	0.000000	0.000000	0.000000
; Gravity
GM-824_19	MH_824_19	MH_824_25	203.702423	0.010000	0.000000	0.000000	0.000000	0.000000
; Gravity
GM-824_2	MH_824_2	MH_824_3	74.384724	0.010000	0.000000	0.000000	0.000000	0.000000
; Gravity
GM-824_20	MH_824_20	MH_824_16	179.358545	0.010000	0.000000	0.000000	0.000000	0.000000
; Gravity
GM-824_21	MH_824_21	MH_824_22	215.016953	0.010000	0.000000	0.000000	0.000000	0.000000
; Gravity
GM-824_22	MH_824_22	MH_824_23	54.229955	0.010000	0.000000	0.000000	0.000000	0.000000
; Gravity
GM-824_23	MH_824_23	MH_824_40	359.800000	0.010000	0.000000	0.000000	0.000000	0.000000
; Gravity
GM-824_24	MH_824_24	MH_824_36	309.906486	0.010000	0.000000	0.000000	0.000000	0.000000
; Gravity
GM-824_25	MH_824_25	WW-147	33.638720	0.010000	0.000000	0.000000	0.000000	0.000000
; Gravity
GM-824_26	MH_824_26	MH_824_27	79.822052	0.010000	0.000000	0.000000	0.000000	0.000000
; Gravity
GM-824_27	MH_824_27	MH_824_28	194.152751	0.010000	0.000000	0.000000	0.000000	0.000000
; Gravity
GM-824_28	MH_824_28	MH_824_29	305.005918	0.010000	0.000000	0.000000	0.000000	0.000000
; Gravity
GM-824_29	MH_824_29	MH_824_30	52.918428	0.010000	0.000000	0.000000	0.000000	0.000000
; Gravity
GM-824_3	MH_824_3	MH_824_6	409.153317	0.010000	0.000000	0.000000	0.000000	0.000000
; Gravity
GM-824_30	MH_824_30	MH_824_35	138.529997	0.010000	0.000000	0.000000	0.000000	0.000000
; Gravity
GM-824_31	MH_824_31	MH_824_32	130.182985	0.010000	0.000000	0.000000	0.000000	0.000000
; Gravity
GM-824_32	MH_824_32	MH_824_48	370.412149	0.010000	0.000000	0.000000	0.000000	0.000000
; Gravity
GM-824_33	MH_824_33	MH_824_34	189.058430	0.010000	0.000000	0.000000	0.000000	0.000000
; Gravity
GM-824_34	MH_824_34	MH_824_25	255.601956	0.010000	0.000000	0.000000	0.000000	0.000000
; Gravity
GM-824_35	MH_824_35	MH_824_37	63.407886	0.010000	0.000000	0.000000	0.000000	0.000000
; Gravity
GM-824_36	MH_824_36	MH_824_39	43.583942	0.010000	0.000000	0.000000	0.000000	0.000000
; Gravity
GM-824_37	MH_824_37	MH_824_38	61.006640	0.010000	0.000000	0.000000	0.000000	0.000000
; Gravity
GM-824_38	MH_824_38	WW-251	38.085889	0.010000	0.000000	0.000000	0.000000	0.000000
; Gravity
GM-824_39	MH_824_39	MH_824_40	286.000437	0.010000	0.000000	0.000000	0.000000	0.000000
; Gravity
GM-824_4	MH_824_4	MH_824_5	170.000706	0.010000	0.000000	0.000000	0.000000	0.000000
; Gravity
GM-824_40	MH_824_40	MH_824_38	284.003961	0.010000	0.000000	0.000000	0.000000	0.000000
; Gravity
GM-824_41	MH_824_41	MH_824_49	134.100032	0.010000	0.000000	0.000000	0.000000	0.000000
; Gravity
GM-824_42	MH_824_42	MH_824_50	134.114882	0.010000	0.000000	0.000000	0.000000	0.000000
; Gravity
GM-824_43	MH_824_43	MH_824_61	363.601375	0.010000	0.000000	0.000000	0.000000	0.000000
; Gravity
GM-824_44	MH_824_44	MH_824_45	300.004817	0.010000	0.000000	0.000000	0.000000	0.000000
; Gravity
GM-824_45	MH_824_45	MH_824_37	101.504958	0.010000	0.000000	0.000000	0.000000	0.000000
; Gravity
GM-824_46	MH_824_46	MH_824_44	316.022848	0.010000	0.000000	0.000000	0.000000	0.000000
; Gravity
GM-824_47	MH_824_47	MH_824_33	260.668359	0.010000	0.000000	0.000000	0.000000	0.000000
; Gravity
GM-824_48	MH_824_48	MH_824_64	245.300032	0.010000	0.000000	0.000000	0.000000	0.000000
; Gravity
GM-824_49	MH_824_49	MH_824_50	256.018769	0.010000	0.000000	0.000000	0.000000	0.000000
; Gravity
GM-824_5	MH_824_5	MH_824_7	256.610000	0.010000	0.000000	0.000000	0.000000	0.000000
; Gravity
GM-824_50	MH_824_50	MH_824_51	217.088554	0.010000	0.000000	0.000000	0.000000	0.000000
; Gravity
GM-824_51	MH_824_51	MH_824_67	248.008065	0.010000	0.000000	0.000000	0.000000	0.000000
; Gravity
GM-824_52	MH_824_52	MH_824_49	110.099773	0.010000	0.000000	0.000000	0.000000	0.000000
; Gravity
GM-824_53	MH_824_53	MH_824_46	139.463257	0.010000	0.000000	0.000000	0.000000	0.000000
; Gravity
GM-824_54	MH_824_54	MH_824_53	130.292594	0.010000	0.000000	0.000000	0.000000	0.000000
; Gravity
GM-824_55	MH_824_55	MH_824_45	279.307129	0.010000	0.000000	0.000000	0.000000	0.000000
; Gravity
GM-824_56	MH_824_56	MH_824_57	117.000684	0.010000	0.000000	0.000000	0.000000	0.000000
; Gravity
GM-824_57	MH_824_57	MH_824_54	105.646391	0.010000	0.000000	0.000000	0.000000	0.000000
; Gravity
GM-824_58	MH_824_58	MH_824_59	342.035100	0.010000	0.000000	0.000000	0.000000	0.000000
; Gravity
GM-824_59	MH_824_59	MH_824_55	63.534558	0.010000	0.000000	0.000000	0.000000	0.000000
; Gravity
GM-824_6	MH_824_6	MH_824_8	175.325637	0.010000	0.000000	0.000000	0.000000	0.000000
; Gravity
GM-824_60	MH_824_60	MH_824_47	249.602003	0.010000	0.000000	0.000000	0.000000	0.000000
; Gravity
GM-824_61	MH_824_61	MH_824_60	308.014546	0.010000	0.000000	0.000000	0.000000	0.000000
; Gravity
GM-824_62	MH_824_62	MH_824_67	388.313482	0.010000	0.000000	0.000000	0.000000	0.000000
; Gravity
GM-824_63	MH_824_63	WW-250	36.720997	0.010000	0.000000	0.000000	0.000000	0.000000
; Gravity
GM-824_64	MH_824_64	MH_824_61	317.019322	0.010000	0.000000	0.000000	0.000000	0.000000
; Gravity
GM-824_65	MH_824_65	MH_824_64	376.063306	0.010000	0.000000	0.000000	0.000000	0.000000
; Gravity
GM-824_66	MH_824_66	MH_824_63	142.310787	0.010000	0.000000	0.000000	0.000000	0.000000
; Gravity
GM-824_67	MH_824_67	MH_824_63	300.331166	0.010000	0.000000	0.000000	0.000000	0.000000
; Gravity
GM-824_68	MH_824_68	MH_824_62	242.541626	0.010000	0.000000	0.000000	0.000000	0.000000
; Gravity
GM-824_69	MH_824_69	MH_824_70	321.838842	0.010000	0.000000	0.000000	0.000000	0.000000
; Gravity
GM-824_7	MH_824_7	MH_824_6	180.160309	0.010000	0.000000	0.000000	0.000000	0.000000
; Gravity
GM-824_70	MH_824_70	MH_824_80	399.701283	0.010000	0.000000	0.000000	0.000000	0.000000
; Gravity
GM-824_71	MH_824_71	MH_824_70	314.049933	0.010000	0.000000	0.000000	0.000000	0.000000
; Gravity
GM-824_72	MH_824_72	MH_824_75	190.237115	0.010000	0.000000	0.000000	0.000000	0.000000
; Gravity
GM-824_73	MH_824_73	MH_824_76	194.797064	0.010000	0.000000	0.000000	0.000000	0.000000
; Gravity
GM-824_74	MH_824_74	MH_824_75	146.016575	0.010000	0.000000	0.000000	0.000000	0.000000
; Gravity
GM-824_75	MH_824_75	WW-242	169.755457	0.010000	0.000000	0.000000	0.000000	0.000000
; Gravity
GM-824_76	MH_824_76	MH_824_78	103.263007	0.010000	0.000000	0.000000	0.000000	0.000000
; Gravity
GM-824_77	MH_824_77	MH_824_72	215.746982	0.010000	0.000000	0.000000	0.000000	0.000000
; Gravity
GM-824_78	MH_824_78	MH_824_77	161.257585	0.010000	0.000000	0.000000	0.000000	0.000000
; Gravity
GM-824_79	MH_824_79	MH_824_83	317.925196	0.010000	0.000000	0.000000	0.000000	0.000000
; Gravity
GM-824_8	MH_824_8	MH_824_10	170.442835	0.010000	0.000000	0.000000	0.000000	0.000000
; Gravity
GM-824_80	MH_824_80	MH_824_86	275.065942	0.010000	0.000000	0.000000	0.000000	0.000000
; Gravity
GM-824_81	MH_824_81	MH_824_87	139.827608	0.010000	0.000000	0.000000	0.000000	0.000000
; Gravity
GM-824_82	MH_824_82	MH_824_88	190.865503	0.010000	0.000000	0.000000	0.000000	0.000000
; Gravity
GM-824_83	MH_824_83	MH_824_84	77.000000	0.010000	0.000000	0.000000	0.000000	0.000000
; Gravity
GM-824_84	MH_824_84	MH_824_82	176.004091	0.010000	0.000000	0.000000	0.000000	0.000000
; Gravity
GM-824_85	MH_824_85	MH_824_83	281.167369	0.010000	0.000000	0.000000	0.000000	0.000000
; Gravity
GM-824_86	MH_824_86	MH_824_85	135.059246	0.010000	0.000000	0.000000	0.000000	0.000000
; Gravity
GM-824_87	MH_824_87	MH_824_88	75.922065	0.010000	0.000000	0.000000	0.000000	0.000000
; Gravity
GM-824_88	MH_824_88	MH_824_89	200.918611	0.010000	0.000000	0.000000	0.000000	0.000000
; Gravity
GM-824_89	MH_824_89	WW-246	74.630694	0.010000	0.000000	0.000000	0.000000	0.000000
; Gravity
GM-824_9	MH_824_9	MH_824_12	169.760537	0.010000	0.000000	0.000000	0.000000	0.000000
; Gravity
GM-824_90	MH_824_90	MH_824_85	200.434285	0.010000	0.000000	0.000000	0.000000	0.000000
; Gravity
GM-824_91	MH_824_91	MH_824_93	198.565758	0.010000	0.000000	0.000000	0.000000	0.000000
; Gravity
GM-824_92	MH_824_92	MH_824_84	274.282323	0.010000	0.000000	0.000000	0.000000	0.000000
; Gravity
GM-824_93	MH_824_93	MH_824_94	101.365477	0.010000	0.000000	0.000000	0.000000	0.000000
; Gravity
GM-824_94	MH_824_94	MH_824_95	307.007183	0.010000	0.000000	0.000000	0.000000	0.000000
; Gravity
GM-824_95	MH_824_95	MH_824_106	219.975171	0.010000	0.000000	0.000000	0.000000	0.000000
; Gravity
GM-824_96	MH_824_96	MH_824_95	370.024986	0.010000	0.000000	0.000000	0.000000	0.000000
; Gravity
GM-824_97	MH_824_97	MH_824_102	281.570750	0.010000	0.000000	0.000000	0.000000	0.000000
; Gravity
GM-824_98	MH_824_98	MH_824_101	116.026549	0.010000	0.000000	0.000000	0.000000	0.000000
; Gravity
GM-824_99	MH_824_99	MH_824_100	126.152448	0.010000	0.000000	0.000000	0.000000	0.000000
; Gravity
GM-825_10	MH_825_10	MH_825_9	32.097510	0.010000	0.000000	0.000000	0.000000	0.000000
; Gravity
GM-825_11	MH_825_11	WW-247	42.721712	0.010000	0.000000	0.000000	0.000000	0.000000
; Gravity
GM-825_12	MH_825_12	MH_825_10	295.042370	0.010000	0.000000	0.000000	0.000000	0.000000
; Gravity
GM-825_13	MH_825_13	MH_825_12	498.014498	0.010000	0.000000	0.000000	0.000000	0.000000
; Gravity
GM-825_14	MH_825_14	MH_825_13	266.011748	0.010000	0.000000	0.000000	0.000000	0.000000
; Gravity
GM-825_2	MH_825_2	MH_825_3	174.406449	0.010000	0.000000	0.000000	0.000000	0.000000
; Gravity
GM-825_3	MH_825_3	WW-1003	51.296033	0.010000	0.000000	0.000000	0.000000	0.000000
; Gravity
GM-825_4	MH_825_4	MH_825_3	376.035956	0.010000	0.000000	0.000000	0.000000	0.000000
; Gravity
GM-825_5	MH_825_5	WW-1002	59.890666	0.010000	0.000000	0.000000	0.000000	0.000000
; Gravity
GM-825_6	MH_825_6	MH_825_7	297.000000	0.010000	0.000000	0.000000	0.000000	0.000000
; Gravity
GM-825_7	MH_825_7	MH_825_5	270.104350	0.010000	0.000000	0.000000	0.000000	0.000000
; Gravity
GM-825_8	MH_825_8	MH_825_11	16.475436	0.010000	0.000000	0.000000	0.000000	0.000000
; Gravity
GM-825_9	MH_825_9	MH_825_8	355.109054	0.010000	0.000000	0.000000	0.000000	0.000000
; Gravity
GM-919_1	MH_919_1	MH_919_13	326.306098	0.010000	0.000000	0.000000	0.000000	0.000000
; Gravity
GM-919_10	MH_919_10	MH_919_9	60.030077	0.010000	0.000000	0.000000	0.000000	0.000000
; Gravity
GM-919_100	MH_919_100	MH_919_82	368.428438	0.010000	0.000000	0.000000	0.000000	0.000000
; Gravity
GM-919_101	MH_919_101	MH_919_110	243.118572	0.010000	0.000000	0.000000	0.000000	0.000000
; Gravity
GM-919_102	MH_919_102	MH_919_93	212.352530	0.010000	0.000000	0.000000	0.000000	0.000000
; Gravity
GM-919_103	MH_919_103	MH_919_123	376.385061	0.010000	0.000000	0.000000	0.000000	0.000000
; Gravity
GM-919_104	MH_919_104	MH_919_108	108.551555	0.010000	0.000000	0.000000	0.000000	0.000000
; Gravity
GM-919_105	MH_919_105	MH_919_88	400.361168	0.010000	0.000000	0.000000	0.000000	0.000000
; Gravity
GM-919_106	MH_919_106	MH_919_107	308.015600	0.010000	0.000000	0.000000	0.000000	0.000000
; Gravity
GM-919_107	MH_919_107	MH_919_102	166.526154	0.010000	0.000000	0.000000	0.000000	0.000000
; Gravity
GM-919_108	MH_919_108	MH_919_115	291.583607	0.010000	0.000000	0.000000	0.000000	0.000000
; Gravity
GM-919_109	MH_919_109	MH_919_96	292.349913	0.010000	0.000000	0.000000	0.000000	0.000000
; Gravity
GM-919_11	MH_919_11	MH_919_12	258.014127	0.010000	0.000000	0.000000	0.000000	0.000000
; Gravity
GM-919_110	MH_919_110	MH_919_117	240.008667	0.010000	0.000000	0.000000	0.000000	0.000000
; Gravity
GM-919_111	MH_919_111	MH_919_109	172.386195	0.010000	0.000000	0.000000	0.000000	0.000000
; Gravity
GM-919_112	MH_919_112	MH_919_134	272.745802	0.010000	0.000000	0.000000	0.000000	0.000000
; Gravity
GM-919_113	MH_919_113	MH_919_108	147.719612	0.010000	0.000000	0.000000	0.000000	0.000000
; Gravity
GM-919_114	MH_919_114	MH_919_92	421.632494	0.010000	0.000000	0.000000	0.000000	0.000000
; Gravity
GM-919_115	MH_919_115	MH_919_116	274.018686	0.010000	0.000000	0.000000	0.000000	0.000000
; Gravity
GM-919_116	MH_919_116	MH_919_122	142.931455	0.010000	0.000000	0.000000	0.000000	0.000000
; Gravity
GM-919_117	MH_919_117	MH_919_116	418.001448	0.010000	0.000000	0.000000	0.000000	0.000000
; Gravity
GM-919_118	MH_919_118	MH_919_110	172.480840	0.010000	0.000000	0.000000	0.000000	0.000000
; Gravity
GM-919_119	MH_919_119	MH_919_109	264.429016	0.010000	0.000000	0.000000	0.000000	0.000000
; Gravity
GM-919_12	MH_919_12	MH_919_13	403.083352	0.010000	0.000000	0.000000	0.000000	0.000000
; Gravity
GM-919_120	MH_919_120	MH_919_105	320.276506	0.010000	0.000000	0.000000	0.000000	0.000000
; Gravity
GM-919_121	MH_919_121	MH_919_120	396.029090	0.010000	0.000000	0.000000	0.000000	0.000000
; Gravity
GM-919_122	MH_919_122	MH_919_121	381.007559	0.010000	0.000000	0.000000	0.000000	0.000000
; Gravity
GM-919_123	MH_919_123	MH_919_129	67.307397	0.010000	0.000000	0.000000	0.000000	0.000000
; Gravity
GM-919_124	MH_919_124	MH_919_122	353.297681	0.010000	0.000000	0.000000	0.000000	0.000000
; Gravity
GM-919_125	MH_919_125	MH_919_124	396.023345	0.010000	0.000000	0.000000	0.000000	0.000000
; Gravity
GM-919_126	MH_919_126	MH_919_125	356.019228	0.010000	0.000000	0.000000	0.000000	0.000000
; Gravity
GM-919_127	MH_919_127	MH_919_119	120.341182	0.010000	0.000000	0.000000	0.000000	0.000000
; Gravity
GM-919_128	MH_919_128	MH_919_130	465.107515	0.010000	0.000000	0.000000	0.000000	0.000000
; Gravity
GM-919_129	MH_919_129	MH_919_131	377.030556	0.010000	0.000000	0.000000	0.000000	0.000000
; Gravity
GM-919_13	MH_919_13	MH_919_29	341.593724	0.010000	0.000000	0.000000	0.000000	0.000000
; Gravity
GM-919_130	MH_919_130	MH_919_132	307.077530	0.010000	0.000000	0.000000	0.000000	0.000000
; Gravity
GM-919_131	MH_919_131	MH_919_126	61.108151	0.010000	0.000000	0.000000	0.000000	0.000000
; Gravity
GM-919_132	MH_919_132	MH_919_120	95.005263	0.010000	0.000000	0.000000	0.000000	0.000000
; Gravity
GM-919_133	MH_919_133	MH_919_128	442.416817	0.010000	0.000000	0.000000	0.000000	0.000000
; Gravity
GM-919_134	MH_919_134	MH_919_135	303.034916	0.010000	0.000000	0.000000	0.000000	0.000000
; Gravity
GM-919_135	MH_919_135	MH_919_138	393.297649	0.010000	0.000000	0.000000	0.000000	0.000000
; Gravity
GM-919_136	MH_919_136	MH_919_111	314.337017	0.010000	0.000000	0.000000	0.000000	0.000000
; Gravity
GM-919_137	MH_919_137	MH_919_127	197.508191	0.010000	0.000000	0.000000	0.000000	0.000000
; Gravity
GM-919_138	MH_919_138	MH_919_137	174.270166	0.010000	0.000000	0.000000	0.000000	0.000000
; Gravity
GM-919_139	MH_919_139	MH_919_151	303.006601	0.010000	0.000000	0.000000	0.000000	0.000000
; Gravity
GM-919_14	MH_919_14	MH_919_13	448.016976	0.010000	0.000000	0.000000	0.000000	0.000000
; Gravity
GM-919_140	MH_919_140	MH_919_146	236.670319	0.010000	0.000000	0.000000	0.000000	0.000000
; Gravity
GM-919_141	MH_919_141	MH_919_127	220.423221	0.010000	0.000000	0.000000	0.000000	0.000000
; Gravity
GM-919_142	MH_919_142	MH_919_159	348.970246	0.010000	0.000000	0.000000	0.000000	0.000000
; Gravity
GM-919_143	MH_919_143	MH_919_132	195.123096	0.010000	0.000000	0.000000	0.000000	0.000000
; Gravity
GM-919_144	MH_919_144	MH_919_150	209.437811	0.010000	0.000000	0.000000	0.000000	0.000000
; Gravity
GM-919_145	MH_919_145	MH_919_157	309.706490	0.010000	0.000000	0.000000	0.000000	0.000000
; Gravity
GM-919_146	MH_919_146	MH_919_153	184.600000	0.010000	0.000000	0.000000	0.000000	0.000000
; Gravity
GM-919_147	MH_919_147	MH_919_131	261.220903	0.010000	0.000000	0.000000	0.000000	0.000000
; Gravity
GM-919_148	MH_919_148	MH_919_136	315.111584	0.010000	0.000000	0.000000	0.000000	0.000000
; Gravity
GM-919_149	MH_919_149	MH_919_141	211.528019	0.010000	0.000000	0.000000	0.000000	0.000000
; Gravity
GM-919_15	MH_919_15	MH_919_11	362.505173	0.010000	0.000000	0.000000	0.000000	0.000000
; Gravity
GM-919_150	MH_919_150	MH_919_182	425.357635	0.010000	0.000000	0.000000	0.000000	0.000000
; Gravity
GM-919_151	MH_919_151	MH_919_150	444.000721	0.010000	0.000000	0.000000	0.000000	0.000000
; Gravity
GM-919_152	MH_919_152	MH_919_151	38.025781	0.010000	0.000000	0.000000	0.000000	0.000000
; Gravity
GM-919_153	MH_919_153	MH_919_160	151.107910	0.010000	0.000000	0.000000	0.000000	0.000000
; Gravity
GM-919_154	MH_919_154	MH_919_129	425.195293	0.010000	0.000000	0.000000	0.000000	0.000000
; Gravity
GM-919_155	MH_919_155	MH_919_143	282.828287	0.010000	0.000000	0.000000	0.000000	0.000000
; Gravity
GM-919_156	MH_919_156	MH_919_149	186.556377	0.010000	0.000000	0.000000	0.000000	0.000000
; Gravity
GM-919_157	MH_919_157	MH_919_171	185.369793	0.010000	0.000000	0.000000	0.000000	0.000000
; Gravity
GM-919_158	MH_919_158	MH_919_148	210.537875	0.010000	0.000000	0.000000	0.000000	0.000000
; Gravity
GM-919_159	MH_919_159	MH_919_184	394.800000	0.010000	0.000000	0.000000	0.000000	0.000000
; Gravity
GM-919_16	MH_919_16	MH_919_15	104.846980	0.010000	0.000000	0.000000	0.000000	0.000000
; Gravity
GM-919_160	MH_919_160	MH_919_169	176.924956	0.010000	0.000000	0.000000	0.000000	0.000000
; Gravity
GM-919_161	MH_919_161	MH_919_158	129.928596	0.010000	0.000000	0.000000	0.000000	0.000000
; Gravity
GM-919_162	MH_919_162	MH_919_155	118.400000	0.010000	0.000000	0.000000	0.000000	0.000000
; Gravity
GM-919_163	MH_919_163	MH_919_147	353.277512	0.010000	0.000000	0.000000	0.000000	0.000000
; Gravity
GM-919_164	MH_919_164	MH_919_165	370.006541	0.010000	0.000000	0.000000	0.000000	0.000000
; Gravity
GM-919_165	MH_919_165	MH_919_162	278.116897	0.010000	0.000000	0.000000	0.000000	0.000000
; Gravity
GM-919_166	MH_919_166	MH_919_164	399.008471	0.010000	0.000000	0.000000	0.000000	0.000000
; Gravity
GM-919_167	MH_919_167	MH_919_180	166.443504	0.010000	0.000000	0.000000	0.000000	0.000000
; Gravity
GM-919_168	MH_919_168	MH_919_179	147.854117	0.010000	0.000000	0.000000	0.000000	0.000000
; Gravity
GM-919_169	MH_919_169	MH_919_187	283.221045	0.010000	0.000000	0.000000	0.000000	0.000000
; Gravity
GM-919_17	MH_919_17	MH_919_18	55.858868	0.010000	0.000000	0.000000	0.000000	0.000000
; Gravity
GM-919_170	MH_919_170	MH_919_189	284.543966	0.010000	0.000000	0.000000	0.000000	0.000000
; Gravity
GM-919_171	MH_919_171	MH_919_188	330.604307	0.010000	0.000000	0.000000	0.000000	0.000000
; Gravity
GM-919_172	MH_919_172	MH_919_176	220.828904	0.010000	0.000000	0.000000	0.000000	0.000000
; Gravity
GM-919_173	MH_919_173	MH_919_165	143.951381	0.010000	0.000000	0.000000	0.000000	0.000000
; Gravity
GM-919_174	MH_919_174	MH_919_173	168.000119	0.010000	0.000000	0.000000	0.000000	0.000000
; Gravity
GM-919_175	MH_919_175	MH_919_173	319.005079	0.010000	0.000000	0.000000	0.000000	0.000000
; Gravity
GM-919_176	MH_919_176	MH_919_178	124.149951	0.010000	0.000000	0.000000	0.000000	0.000000
; Gravity
GM-919_177	MH_919_177	MH_919_154	394.820263	0.010000	0.000000	0.000000	0.000000	0.000000
; Gravity
GM-919_178	MH_919_178	MH_919_175	205.555962	0.010000	0.000000	0.000000	0.000000	0.000000
; Gravity
GM-919_179	MH_919_179	MH_919_181	21.129127	0.010000	0.000000	0.000000	0.000000	0.000000
; Gravity
GM-919_18	MH_919_18	MH_919_28	183.749939	0.010000	0.000000	0.000000	0.000000	0.000000
; Gravity
GM-919_180	MH_919_180	MH_919_179	252.126952	0.010000	0.000000	0.000000	0.000000	0.000000
; Gravity
GM-919_181	MH_919_181	MH_919_182	160.038278	0.010000	0.000000	0.000000	0.000000	0.000000
; Gravity
GM-919_182	MH_919_182	MH_919_197	315.114249	0.010000	0.000000	0.000000	0.000000	0.000000
; Gravity
GM-919_183	MH_919_183	MH_919_181	40.412374	0.010000	0.000000	0.000000	0.000000	0.000000
; Gravity
GM-919_184	MH_919_184	MH_919_185	139.093529	0.010000	0.000000	0.000000	0.000000	0.000000
; Gravity
GM-919_185	MH_919_185	MH_919_191	205.456111	0.010000	0.000000	0.000000	0.000000	0.000000
; Gravity
GM-919_186	MH_919_186	MH_919_176	139.459022	0.010000	0.000000	0.000000	0.000000	0.000000
; Gravity
GM-919_187	MH_919_187	MH_919_192	36.523417	0.010000	0.000000	0.000000	0.000000	0.000000
; Gravity
GM-919_188	MH_919_188	MH_919_190	17.117243	0.010000	0.000000	0.000000	0.000000	0.000000
; Gravity
GM-919_189	MH_919_189	MH_919_207	323.296133	0.010000	0.000000	0.000000	0.000000	0.000000
; Gravity
GM-919_19	MH_919_19	MH_919_10	182.828550	0.010000	0.000000	0.000000	0.000000	0.000000
; Gravity
GM-919_190	MH_919_190	WW-224	25.941675	0.010000	0.000000	0.000000	0.000000	0.000000
; Gravity
GM-919_191	MH_919_191	MH_919_190	254.005625	0.010000	0.000000	0.000000	0.000000	0.000000
; Gravity
GM-919_192	MH_919_192	MH_919_190	312.061597	0.010000	0.000000	0.000000	0.000000	0.000000
; Gravity
GM-919_193	MH_919_193	MH_919_192	257.437371	0.010000	0.000000	0.000000	0.000000	0.000000
; Gravity
GM-919_194	MH_919_194	MH_919_193	340.019059	0.010000	0.000000	0.000000	0.000000	0.000000
; Gravity
GM-919_195	MH_919_195	MH_919_180	199.002513	0.010000	0.000000	0.000000	0.000000	0.000000
; Gravity
GM-919_196	MH_919_196	MH_919_201	220.281729	0.010000	0.000000	0.000000	0.000000	0.000000
; Gravity
GM-919_197	MH_919_197	MH_919_204	151.953941	0.010000	0.000000	0.000000	0.000000	0.000000
; Gravity
GM-919_198	MH_919_198	MH_919_197	312.000000	0.010000	0.000000	0.000000	0.000000	0.000000
; Gravity
GM-919_199	MH_919_199	MH_919_177	371.821517	0.010000	0.000000	0.000000	0.000000	0.000000
; Gravity
GM-919_2	MH_919_2	MH_919_3	200.014400	0.010000	0.000000	0.000000	0.000000	0.000000
; Gravity
GM-919_20	MH_919_20	MH_919_18	312.193850	0.010000	0.000000	0.000000	0.000000	0.000000
; Gravity
GM-919_200	MH_919_200	MH_919_201	275.084060	0.010000	0.000000	0.000000	0.000000	0.000000
; Gravity
GM-919_201	MH_919_201	MH_930_135	330.040967	0.010000	0.000000	0.000000	0.000000	0.000000
; Gravity
GM-919_202	MH_919_202	MH_919_200	223.276087	0.010000	0.000000	0.000000	0.000000	0.000000
; Gravity
GM-919_203	MH_919_203	MH_919_202	320.021390	0.010000	0.000000	0.000000	0.000000	0.000000
; Gravity
GM-919_204	MH_919_204	MH_919_203	197.003655	0.010000	0.000000	0.000000	0.000000	0.000000
; Gravity
GM-919_205	MH_919_205	MH_919_208	325.071131	0.010000	0.000000	0.000000	0.000000	0.000000
; Gravity
GM-919_206	MH_919_206	MH_919_205	238.006008	0.010000	0.000000	0.000000	0.000000	0.000000
; Gravity
GM-919_207	MH_919_207	MH_919_204	553.017505	0.010000	0.000000	0.000000	0.000000	0.000000
; Gravity
GM-919_208	MH_919_208	MH_919_184	379.689644	0.010000	0.000000	0.000000	0.000000	0.000000
; Gravity
GM-919_209	MH_919_209	MH_919_207	169.247275	0.010000	0.000000	0.000000	0.000000	0.000000
; Gravity
GM-919_21	MH_919_21	MH_919_22	332.071694	0.010000	0.000000	0.000000	0.000000	0.000000
; Gravity
GM-919_210	MH_919_210	MH_919_209	70.413738	0.010000	0.000000	0.000000	0.000000	0.000000
; Gravity
GM-919_211	MH_919_211	MH_919_210	395.035555	0.010000	0.000000	0.000000	0.000000	0.000000
; Gravity
GM-919_212	MH_919_212	MH_919_202	333.973336	0.010000	0.000000	0.000000	0.000000	0.000000
; Gravity
GM-919_213	MH_919_213	MH_919_210	137.165010	0.010000	0.000000	0.000000	0.000000	0.000000
; Gravity
GM-919_214	MH_919_214	MH_919_203	386.104908	0.010000	0.000000	0.000000	0.000000	0.000000
; Gravity
GM-919_215	MH_919_215	MH_919_201	398.480314	0.010000	0.000000	0.000000	0.000000	0.000000
; Gravity
GM-919_216	MH_919_216	MH_919_211	238.171871	0.010000	0.000000	0.000000	0.000000	0.000000
; Gravity
GM-919_217	MH_919_217	MH_919_212	303.059400	0.010000	0.000000	0.000000	0.000000	0.000000
; Gravity
GM-919_218	MH_919_218	MH_919_219	402.044774	0.010000	0.000000	0.000000	0.000000	0.000000
; Gravity
GM-919_219	MH_919_219	MH_919_220	156.000513	0.010000	0.000000	0.000000	0.000000	0.000000
; Gravity
GM-919_22	MH_919_22	MH_919_19	201.684308	0.010000	0.000000	0.000000	0.000000	0.000000
; Gravity
GM-919_220	MH_919_220	MH_919_213	394.602617	0.010000	0.000000	0.000000	0.000000	0.000000
; Gravity
GM-919_221	MH_919_221	MH_919_228	346.736021	0.010000	0.000000	0.000000	0.000000	0.000000
; Gravity
GM-919_222	MH_919_222	MH_919_214	397.861584	0.010000	0.000000	0.000000	0.000000	0.000000
; Gravity
GM-919_223	MH_919_223	MH_919_221	177.057194	0.010000	0.000000	0.000000	0.000000	0.000000
; Gravity
GM-919_224	MH_919_224	MH_919_223	310.054254	0.010000	0.000000	0.000000	0.000000	0.000000
; Gravity
GM-919_225	MH_919_225	MH_919_234	398.880233	0.010000	0.000000	0.000000	0.000000	0.000000
; Gravity
GM-919_226	MH_919_226	MH_919_222	89.005618	0.010000	0.000000	0.000000	0.000000	0.000000
; Gravity
GM-919_227	MH_919_227	MH_919_220	281.844354	0.010000	0.000000	0.000000	0.000000	0.000000
; Gravity
GM-919_228	MH_919_228	MH_930_179	166.189713	0.010000	0.000000	0.000000	0.000000	0.000000
; Gravity
GM-919_229	MH_919_229	MH_919_228	35.014283	0.010000	0.000000	0.000000	0.000000	0.000000
; Gravity
GM-919_23	MH_919_23	MH_919_7	399.661307	0.010000	0.000000	0.000000	0.000000	0.000000
; Gravity
GM-919_230	MH_919_230	MH_919_229	55.339053	0.010000	0.000000	0.000000	0.000000	0.000000
; Gravity
GM-919_231	MH_919_231	MH_919_232	122.679454	0.010000	0.000000	0.000000	0.000000	0.000000
; Gravity
GM-919_232	MH_919_232	MH_919_227	297.375251	0.010000	0.000000	0.000000	0.000000	0.000000
; Gravity
GM-919_233	MH_919_233	MH_919_230	227.694972	0.010000	0.000000	0.000000	0.000000	0.000000
; Gravity
GM-919_234	MH_919_234	MH_919_233	372.071619	0.010000	0.000000	0.000000	0.000000	0.000000
; Gravity
GM-919_24	MH_919_24	MH_919_21	137.907967	0.010000	0.000000	0.000000	0.000000	0.000000
; Gravity
GM-919_25	MH_919_25	MH_919_30	127.162895	0.010000	0.000000	0.000000	0.000000	0.000000
; Gravity
GM-919_26	MH_919_26	MH_919_15	198.841646	0.010000	0.000000	0.000000	0.000000	0.000000
; Gravity
GM-919_27	MH_919_27	MH_919_36	188.002660	0.010000	0.000000	0.000000	0.000000	0.000000
; Gravity
GM-919_28	MH_919_28	MH_919_39	238.312139	0.010000	0.000000	0.000000	0.000000	0.000000
; Gravity
GM-919_29	MH_919_29	MH_919_43	345.901414	0.010000	0.000000	0.000000	0.000000	0.000000
; Gravity
GM-919_3	MH_919_3	MH_919_1	378.104696	0.010000	0.000000	0.000000	0.000000	0.000000
; Gravity
GM-919_30	MH_919_30	MH_919_31	361.000158	0.010000	0.000000	0.000000	0.000000	0.000000
; Gravity
GM-919_31	MH_919_31	MH_919_29	315.026681	0.010000	0.000000	0.000000	0.000000	0.000000
; Gravity
GM-919_32	MH_919_32	MH_919_29	482.063108	0.010000	0.000000	0.000000	0.000000	0.000000
; Gravity
GM-919_33	MH_919_33	MH_919_42	241.548422	0.010000	0.000000	0.000000	0.000000	0.000000
; Gravity
GM-919_34	MH_919_34	MH_919_38	183.548250	0.010000	0.000000	0.000000	0.000000	0.000000
; Gravity
GM-919_35	MH_919_35	MH_919_36	288.924919	0.010000	0.000000	0.000000	0.000000	0.000000
; Gravity
GM-919_36	MH_919_36	MH_919_48	301.325406	0.010000	0.000000	0.000000	0.000000	0.000000
; Gravity
GM-919_37	MH_919_37	MH_919_35	194.271068	0.010000	0.000000	0.000000	0.000000	0.000000
; Gravity
GM-919_38	MH_919_38	MH_919_51	258.430958	0.010000	0.000000	0.000000	0.000000	0.000000
; Gravity
GM-919_39	MH_919_39	MH_919_56	309.583592	0.010000	0.000000	0.000000	0.000000	0.000000
; Gravity
GM-919_4	MH_919_4	MH_919_17	407.271389	0.010000	0.000000	0.000000	0.000000	0.000000
; Gravity
GM-919_40	MH_919_40	MH_919_30	226.602207	0.010000	0.000000	0.000000	0.000000	0.000000
; Gravity
GM-919_41	MH_919_41	MH_919_59	282.919826	0.010000	0.000000	0.000000	0.000000	0.000000
; Gravity
GM-919_42	MH_919_42	MH_919_50	192.023436	0.010000	0.000000	0.000000	0.000000	0.000000
; Gravity
GM-919_43	MH_919_43	MH_919_44	32.005625	0.010000	0.000000	0.000000	0.000000	0.000000
; Gravity
GM-919_44	MH_919_44	MH_919_55	163.049073	0.010000	0.000000	0.000000	0.000000	0.000000
; Gravity
GM-919_45	MH_919_45	MH_919_46	252.012401	0.010000	0.000000	0.000000	0.000000	0.000000
; Gravity
GM-919_46	MH_919_46	MH_919_47	283.015901	0.010000	0.000000	0.000000	0.000000	0.000000
; Gravity
GM-919_47	MH_919_47	MH_919_58	166.603001	0.010000	0.000000	0.000000	0.000000	0.000000
; Gravity
GM-919_48	MH_919_48	MH_919_64	312.806394	0.010000	0.000000	0.000000	0.000000	0.000000
; Gravity
GM-919_49	MH_919_49	MH_919_52	248.230721	0.010000	0.000000	0.000000	0.000000	0.000000
; Gravity
GM-919_5	MH_919_5	MH_919_10	245.270545	0.010000	0.000000	0.000000	0.000000	0.000000
; Gravity
GM-919_50	MH_919_50	MH_919_49	293.003345	0.010000	0.000000	0.000000	0.000000	0.000000
; Gravity
GM-919_51	MH_919_51	MH_919_53	198.222501	0.010000	0.000000	0.000000	0.000000	0.000000
; Gravity
GM-919_52	MH_919_52	MH_919_48	260.329812	0.010000	0.000000	0.000000	0.000000	0.000000
; Gravity
GM-919_53	MH_919_53	MH_919_50	164.358632	0.010000	0.000000	0.000000	0.000000	0.000000
; Gravity
GM-919_54	MH_919_54	MH_919_55	325.141754	0.010000	0.000000	0.000000	0.000000	0.000000
; Gravity
GM-919_55	MH_919_55	MH_919_57	377.025676	0.010000	0.000000	0.000000	0.000000	0.000000
; Gravity
GM-919_56	MH_919_56	MH_919_63	255.156815	0.010000	0.000000	0.000000	0.000000	0.000000
; Gravity
GM-919_57	MH_919_57	WW-221	401.841107	0.010000	0.000000	0.000000	0.000000	0.000000
; Gravity
GM-919_58	MH_919_58	MH_919_72	297.268214	0.010000	0.000000	0.000000	0.000000	0.000000
; Gravity
GM-919_59	MH_919_59	MH_919_61	209.915236	0.010000	0.000000	0.000000	0.000000	0.000000
; Gravity
GM-919_6	MH_919_6	MH_919_5	257.834226	0.010000	0.000000	0.000000	0.000000	0.000000
; Gravity
GM-919_60	MH_919_60	WW-221	42.261667	0.010000	0.000000	0.000000	0.000000	0.000000
; Gravity
GM-919_61	MH_919_61	MH_919_60	92.164254	0.010000	0.000000	0.000000	0.000000	0.000000
; Gravity
GM-919_63	MH_919_63	MH_919_70	143.325643	0.010000	0.000000	0.000000	0.000000	0.000000
; Gravity
GM-919_64	MH_919_64	MH_930_47	38.075714	0.010000	0.000000	0.000000	0.000000	0.000000
; Gravity
GM-919_65	MH_919_65	MH_919_64	164.235928	0.010000	0.000000	0.000000	0.000000	0.000000
; Gravity
GM-919_66	MH_919_66	MH_919_67	337.000950	0.010000	0.000000	0.000000	0.000000	0.000000
; Gravity
GM-919_67	MH_919_67	MH_919_65	348.048330	0.010000	0.000000	0.000000	0.000000	0.000000
; Gravity
GM-919_68	MH_919_68	MH_919_77	153.526024	0.010000	0.000000	0.000000	0.000000	0.000000
; Gravity
GM-919_69	MH_919_69	MH_919_66	362.063862	0.010000	0.000000	0.000000	0.000000	0.000000
; Gravity
GM-919_7	MH_919_7	MH_919_8	371.097360	0.010000	0.000000	0.000000	0.000000	0.000000
; Gravity
GM-919_70	MH_919_70	MH_919_74	142.898566	0.010000	0.000000	0.000000	0.000000	0.000000
; Gravity
GM-919_71	MH_919_71	WW-221	186.010980	0.010000	0.000000	0.000000	0.000000	0.000000
; Gravity
GM-919_72	MH_919_72	MH_919_73	365.002316	0.010000	0.000000	0.000000	0.000000	0.000000
; Gravity
GM-919_73	MH_919_73	MH_919_89	420.633047	0.010000	0.000000	0.000000	0.000000	0.000000
; Gravity
GM-919_74	MH_919_74	MH_919_69	246.267253	0.010000	0.000000	0.000000	0.000000	0.000000
; Gravity
GM-919_75	MH_919_75	MH_930_48	157.581725	0.010000	0.000000	0.000000	0.000000	0.000000
; Gravity
GM-919_76	MH_919_76	MH_919_77	40.017996	0.010000	0.000000	0.000000	0.000000	0.000000
; Gravity
GM-919_77	MH_919_77	MH_919_78	339.011500	0.010000	0.000000	0.000000	0.000000	0.000000
; Gravity
GM-919_78	MH_919_78	MH_919_79	380.039801	0.010000	0.000000	0.000000	0.000000	0.000000
; Gravity
GM-919_79	MH_919_79	MH_919_81	390.178476	0.010000	0.000000	0.000000	0.000000	0.000000
; Gravity
GM-919_8	MH_919_8	MH_919_6	378.226931	0.010000	0.000000	0.000000	0.000000	0.000000
; Gravity
GM-919_80	MH_919_80	MH_919_95	339.513223	0.010000	0.000000	0.000000	0.000000	0.000000
; Gravity
GM-919_81	MH_919_81	MH_919_71	248.427524	0.010000	0.000000	0.000000	0.000000	0.000000
; Gravity
GM-919_82	MH_919_82	MH_919_78	123.701091	0.010000	0.000000	0.000000	0.000000	0.000000
; Gravity
GM-919_83	MH_919_83	MH_919_65	358.634856	0.010000	0.000000	0.000000	0.000000	0.000000
; Gravity
GM-919_84	MH_919_84	MH_919_83	356.040953	0.010000	0.000000	0.000000	0.000000	0.000000
; Gravity
GM-919_85	MH_919_85	MH_919_84	331.002176	0.010000	0.000000	0.000000	0.000000	0.000000
; Gravity
GM-919_86	MH_919_86	MH_919_85	326.070913	0.010000	0.000000	0.000000	0.000000	0.000000
; Gravity
GM-919_87	MH_919_87	MH_919_74	279.666659	0.010000	0.000000	0.000000	0.000000	0.000000
; Gravity
GM-919_88	MH_919_88	MH_919_75	268.346618	0.010000	0.000000	0.000000	0.000000	0.000000
; Gravity
GM-919_89	MH_919_89	MH_919_103	294.127169	0.010000	0.000000	0.000000	0.000000	0.000000
; Gravity
GM-919_9	MH_919_9	MH_919_27	313.359219	0.010000	0.000000	0.000000	0.000000	0.000000
; Gravity
GM-919_90	MH_919_90	MH_919_86	126.663176	0.010000	0.000000	0.000000	0.000000	0.000000
; Gravity
GM-919_91	MH_919_91	MH_919_83	206.321844	0.010000	0.000000	0.000000	0.000000	0.000000
; Gravity
GM-919_92	MH_919_92	MH_919_76	403.019851	0.010000	0.000000	0.000000	0.000000	0.000000
; Gravity
GM-919_93	MH_919_93	MH_919_79	403.262396	0.010000	0.000000	0.000000	0.000000	0.000000
; Gravity
GM-919_94	MH_919_94	MH_919_101	84.513222	0.010000	0.000000	0.000000	0.000000	0.000000
; Gravity
GM-919_95	MH_919_95	MH_919_112	354.614259	0.010000	0.000000	0.000000	0.000000	0.000000
; Gravity
GM-919_96	MH_919_96	MH_919_81	324.085838	0.010000	0.000000	0.000000	0.000000	0.000000
; Gravity
GM-919_97	MH_919_97	MH_919_84	270.929562	0.010000	0.000000	0.000000	0.000000	0.000000
; Gravity
GM-919_98	MH_919_98	MH_919_97	400.015312	0.010000	0.000000	0.000000	0.000000	0.000000
; Gravity
GM-919_99	MH_919_99	MH_919_98	233.001739	0.010000	0.000000	0.000000	0.000000	0.000000
; Gravity
GM-920_1	MH_920_1	WW-225	14.553668	0.010000	0.000000	0.000000	0.000000	0.000000
; Gravity
GM-920_10	MH_920_10	MH_920_9	93.085982	0.010000	0.000000	0.000000	0.000000	0.000000
; Gravity
GM-920_11	MH_920_11	MH_920_10	262.053601	0.010000	0.000000	0.000000	0.000000	0.000000
; Gravity
GM-920_12	MH_920_12	MH_920_11	395.020253	0.010000	0.000000	0.000000	0.000000	0.000000
; Gravity
GM-920_13	MH_920_13	MH_920_12	440.098274	0.010000	0.000000	0.000000	0.000000	0.000000
; Gravity
GM-920_14	MH_920_14	MH_920_13	364.021978	0.010000	0.000000	0.000000	0.000000	0.000000
; Gravity
GM-920_15	MH_920_15	MH_920_10	264.971835	0.010000	0.000000	0.000000	0.000000	0.000000
; Gravity
GM-920_16	MH_920_16	MH_920_15	272.029410	0.010000	0.000000	0.000000	0.000000	0.000000
; Gravity
GM-920_17	MH_920_17	MH_920_16	298.073079	0.010000	0.000000	0.000000	0.000000	0.000000
; Gravity
GM-920_18	MH_920_18	MH_920_17	383.058600	0.010000	0.000000	0.000000	0.000000	0.000000
; Gravity
GM-920_19	MH_920_19	MH_920_18	315.025396	0.010000	0.000000	0.000000	0.000000	0.000000
; Gravity
GM-920_2	MH_920_2	MH_920_1	158.378912	0.010000	0.000000	0.000000	0.000000	0.000000
; Gravity
GM-920_20	MH_920_20	MH_920_19	439.031992	0.010000	0.000000	0.000000	0.000000	0.000000
; Gravity
GM-920_21	MH_920_21	MH_920_24	122.561404	0.010000	0.000000	0.000000	0.000000	0.000000
; Gravity
GM-920_22	MH_920_22	MH_920_24	395.319885	0.010000	0.000000	0.000000	0.000000	0.000000
; Gravity
GM-920_23	MH_920_23	MH_920_22	417.000108	0.010000	0.000000	0.000000	0.000000	0.000000
; Gravity
GM-920_24	MH_920_24	MH_920_29	272.800000	0.010000	0.000000	0.000000	0.000000	0.000000
; Gravity
GM-920_25	MH_920_25	MH_920_23	371.865352	0.010000	0.000000	0.000000	0.000000	0.000000
; Gravity
GM-920_26	MH_920_26	MH_920_27	311.000000	0.010000	0.000000	0.000000	0.000000	0.000000
; Gravity
GM-920_27	MH_920_27	MH_920_29	407.039913	0.010000	0.000000	0.000000	0.000000	0.000000
; Gravity
GM-920_28	MH_920_28	MH_920_30	337.831319	0.010000	0.000000	0.000000	0.000000	0.000000
; Gravity
GM-920_29	MH_920_29	MH_920_33	299.269043	0.010000	0.000000	0.000000	0.000000	0.000000
; Gravity
GM-920_3	MH_920_3	MH_920_2	330.214492	0.010000	0.000000	0.000000	0.000000	0.000000
; Gravity
GM-920_30	MH_920_30	MH_920_34	262.211060	0.010000	0.000000	0.000000	0.000000	0.000000
; Gravity
GM-920_31	MH_920_31	MH_920_37	345.370914	0.010000	0.000000	0.000000	0.000000	0.000000
; Gravity
GM-920_32	MH_920_32	MH_920_33	294.071846	0.010000	0.000000	0.000000	0.000000	0.000000
; Gravity
GM-920_33	MH_920_33	MH_920_39	359.722208	0.010000	0.000000	0.000000	0.000000	0.000000
; Gravity
GM-920_34	MH_920_34	MH_920_32	367.170860	0.010000	0.000000	0.000000	0.000000	0.000000
; Gravity
GM-920_35	MH_920_35	MH_920_36	168.973412	0.010000	0.000000	0.000000	0.000000	0.000000
; Gravity
GM-920_36	MH_920_36	MH_920_38	348.111020	0.010000	0.000000	0.000000	0.000000	0.000000
; Gravity
GM-920_37	MH_920_37	MH_920_40	160.412282	0.010000	0.000000	0.000000	0.000000	0.000000
; Gravity
GM-920_38	MH_920_38	MH_920_39	222.461233	0.010000	0.000000	0.000000	0.000000	0.000000
; Gravity
GM-920_39	MH_920_39	MH_920_40	157.229929	0.010000	0.000000	0.000000	0.000000	0.000000
; Gravity
GM-920_4	MH_920_4	MH_920_3	379.084424	0.010000	0.000000	0.000000	0.000000	0.000000
; Gravity
GM-920_40	MH_920_40	MH_920_46	531.276554	0.010000	0.000000	0.000000	0.000000	0.000000
; Gravity
GM-920_41	MH_920_41	MH_920_42	202.391909	0.010000	0.000000	0.000000	0.000000	0.000000
; Gravity
GM-920_42	MH_920_42	MH_920_44	242.327382	0.010000	0.000000	0.000000	0.000000	0.000000
; Gravity
GM-920_43	MH_920_43	MH_920_42	247.000000	0.010000	0.000000	0.000000	0.000000	0.000000
; Gravity
GM-920_44	MH_920_44	MH_920_45	165.780095	0.010000	0.000000	0.000000	0.000000	0.000000
; Gravity
GM-920_45	MH_920_45	MH_920_49	186.918271	0.010000	0.000000	0.000000	0.000000	0.000000
; Gravity
GM-920_46	MH_920_46	MH_920_50	331.013595	0.010000	0.000000	0.000000	0.000000	0.000000
; Gravity
GM-920_47	MH_920_47	MH_920_46	352.473886	0.010000	0.000000	0.000000	0.000000	0.000000
; Gravity
GM-920_48	MH_920_48	MH_920_49	382.343354	0.010000	0.000000	0.000000	0.000000	0.000000
; Gravity
GM-920_49	MH_920_49	MH_920_53	360.410544	0.010000	0.000000	0.000000	0.000000	0.000000
; Gravity
GM-920_5	MH_920_5	MH_920_4	410.078042	0.010000	0.000000	0.000000	0.000000	0.000000
; Gravity
GM-920_50	MH_920_50	WW-229	58.485169	0.010000	0.000000	0.000000	0.000000	0.000000
; Gravity
GM-920_51	MH_920_51	MH_920_54	122.354567	0.010000	0.000000	0.000000	0.000000	0.000000
; Gravity
GM-920_52	MH_920_52	MH_920_47	241.751744	0.010000	0.000000	0.000000	0.000000	0.000000
; Gravity
GM-920_53	MH_920_53	MH_920_55	153.169841	0.010000	0.000000	0.000000	0.000000	0.000000
; Gravity
GM-920_54	MH_920_54	MH_920_55	356.536057	0.010000	0.000000	0.000000	0.000000	0.000000
; Gravity
GM-920_55	MH_920_55	WW-230	125.075595	0.010000	0.000000	0.000000	0.000000	0.000000
; Gravity
GM-920_57	MH_920_57	MH_929_130	320.861341	0.010000	0.000000	0.000000	0.000000	0.000000
; Gravity
GM-920_58	MH_920_58	MH_920_59	143.482547	0.010000	0.000000	0.000000	0.000000	0.000000
; Gravity
GM-920_59	MH_920_59	MH_920_60	162.294670	0.010000	0.000000	0.000000	0.000000	0.000000
; Gravity
GM-920_6	MH_920_6	MH_920_5	399.035199	0.010000	0.000000	0.000000	0.000000	0.000000
; Gravity
GM-920_60	MH_920_60	MH_920_61	142.078288	0.010000	0.000000	0.000000	0.000000	0.000000
; Gravity
GM-920_61	MH_920_61	MH_929_158	303.155508	0.010000	0.000000	0.000000	0.000000	0.000000
; Gravity
GM-920_62	MH_920_62	WW-231	17.802497	0.010000	0.000000	0.000000	0.000000	0.000000
; Gravity
GM-920_63	MH_920_63	MH_920_62	237.768038	0.010000	0.000000	0.000000	0.000000	0.000000
; Gravity
GM-920_64	MH_920_64	MH_920_63	350.530227	0.010000	0.000000	0.000000	0.000000	0.000000
; Gravity
GM-920_65	MH_920_65	MH_920_64	381.482634	0.010000	0.000000	0.000000	0.000000	0.000000
; Gravity
GM-920_66	MH_920_66	MH_920_65	182.634229	0.010000	0.000000	0.000000	0.000000	0.000000
; Gravity
GM-920_7	MH_920_7	MH_919_227	512.324432	0.010000	0.000000	0.000000	0.000000	0.000000
; Gravity
GM-920_8	MH_920_8	MH_920_20	412.377574	0.010000	0.000000	0.000000	0.000000	0.000000
; Gravity
GM-920_9	MH_920_9	MH_920_2	349.842983	0.010000	0.000000	0.000000	0.000000	0.000000
; Gravity
GM-928_105	MH_928_105	MH_928_92	413.082510	0.010000	0.000000	0.000000	0.000000	0.000000
; Gravity
GM-928_107	MH_928_107	MH_928_98	158.128493	0.010000	0.000000	0.000000	0.000000	0.000000
; Gravity
GM-928_118	MH_928_118	MH_928_105	244.515592	0.010000	0.000000	0.000000	0.000000	0.000000
; Gravity
GM-928_13	MH_928_13	MH_928_6	313.224545	0.010000	0.000000	0.000000	0.000000	0.000000
; Gravity
GM-928_18	MH_928_18	MH_929_239	296.681715	0.010000	0.000000	0.000000	0.000000	0.000000
; Gravity
GM-928_27	MH_928_27	MH_928_13	304.828218	0.010000	0.000000	0.000000	0.000000	0.000000
; Gravity
GM-928_28	MH_928_28	MH_928_13	152.955551	0.010000	0.000000	0.000000	0.000000	0.000000
; Gravity
GM-928_36	MH_928_36	MH_928_43	105.276018	0.010000	0.000000	0.000000	0.000000	0.000000
; Gravity
GM-928_43	MH_928_43	MH_928_65	404.701268	0.010000	0.000000	0.000000	0.000000	0.000000
; Gravity
GM-928_47	MH_928_47	MH_928_58	251.686233	0.010000	0.000000	0.000000	0.000000	0.000000
; Gravity
GM-928_49	MH_928_49	MH_928_53	154.600000	0.010000	0.000000	0.000000	0.000000	0.000000
; Gravity
GM-928_50	MH_928_50	MH_928_18	515.535568	0.010000	0.000000	0.000000	0.000000	0.000000
; Gravity
GM-928_53	MH_928_53	MH_928_69	274.289337	0.010000	0.000000	0.000000	0.000000	0.000000
; Gravity
GM-928_58	MH_928_58	MH_928_76	294.406794	0.010000	0.000000	0.000000	0.000000	0.000000
; Gravity
GM-928_6	MH_928_6	MH_929_240	341.035248	0.010000	0.000000	0.000000	0.000000	0.000000
; Gravity
GM-928_65	MH_928_65	MH_928_81	292.638397	0.010000	0.000000	0.000000	0.000000	0.000000
; Gravity
GM-928_66	MH_928_66	MH_928_65	228.063939	0.010000	0.000000	0.000000	0.000000	0.000000
; Gravity
GM-928_67	MH_928_67	MH_928_50	323.284999	0.010000	0.000000	0.000000	0.000000	0.000000
; Gravity
GM-928_69	MH_928_69	MH_928_76	166.538935	0.010000	0.000000	0.000000	0.000000	0.000000
; Gravity
GM-928_76	MH_928_76	MH_928_89	119.737556	0.010000	0.000000	0.000000	0.000000	0.000000
; Gravity
GM-928_81	MH_928_81	MH_928_87	348.250255	0.010000	0.000000	0.000000	0.000000	0.000000
; Gravity
GM-928_86	MH_928_86	MH_928_88	350.072007	0.010000	0.000000	0.000000	0.000000	0.000000
; Gravity
GM-928_87	MH_928_87	MH_928_89	83.096330	0.010000	0.000000	0.000000	0.000000	0.000000
; Gravity
GM-928_88	MH_928_88	MH_928_91	175.326811	0.010000	0.000000	0.000000	0.000000	0.000000
; Gravity
GM-928_89	MH_928_89	MH_928_90	235.034040	0.010000	0.000000	0.000000	0.000000	0.000000
; Gravity
GM-928_90	MH_928_90	MH_928_92	270.969392	0.010000	0.000000	0.000000	0.000000	0.000000
; Gravity
GM-928_91	MH_928_91	MH_928_81	150.080017	0.010000	0.000000	0.000000	0.000000	0.000000
; Gravity
GM-928_92	MH_928_92	MH_928_67	337.594002	0.010000	0.000000	0.000000	0.000000	0.000000
; Gravity
GM-928_98	MH_928_98	MH_928_91	298.506668	0.010000	0.000000	0.000000	0.000000	0.000000
; Gravity
GM-929_1	MH_929_1	MH_930_178	114.492808	0.010000	0.000000	0.000000	0.000000	0.000000
; Gravity
GM-929_10	MH_929_10	MH_929_6	70.411931	0.010000	0.000000	0.000000	0.000000	0.000000
; Gravity
GM-929_100	MH_929_100	MH_929_101	256.151206	0.010000	0.000000	0.000000	0.000000	0.000000
; Gravity
GM-929_101	MH_929_101	MH_929_102	399.043620	0.010000	0.000000	0.000000	0.000000	0.000000
; Gravity
GM-929_102	MH_929_102	MH_929_103	369.064506	0.010000	0.000000	0.000000	0.000000	0.000000
; Gravity
GM-929_103	MH_929_103	MH_929_104	338.080997	0.010000	0.000000	0.000000	0.000000	0.000000
; Gravity
GM-929_104	MH_929_104	MH_929_106	386.035025	0.010000	0.000000	0.000000	0.000000	0.000000
; Gravity
GM-929_105	MH_929_105	MH_929_107	241.010975	0.010000	0.000000	0.000000	0.000000	0.000000
; Gravity
GM-929_106	MH_929_106	MH_929_105	181.003978	0.010000	0.000000	0.000000	0.000000	0.000000
; Gravity
GM-929_107	MH_929_107	MH_929_108	193.031733	0.010000	0.000000	0.000000	0.000000	0.000000
; Gravity
GM-929_108	MH_929_108	MH_929_109	359.086913	0.010000	0.000000	0.000000	0.000000	0.000000
; Gravity
GM-929_109	MH_929_109	MH_929_110	369.015664	0.010000	0.000000	0.000000	0.000000	0.000000
; Gravity
GM-929_11	MH_929_11	MH_929_5	171.149525	0.010000	0.000000	0.000000	0.000000	0.000000
; Gravity
GM-929_110	MH_929_110	MH_929_111	186.486591	0.010000	0.000000	0.000000	0.000000	0.000000
; Gravity
GM-929_111	MH_929_111	MH_929_112	218.818401	0.010000	0.000000	0.000000	0.000000	0.000000
; Gravity
GM-929_112	MH_929_112	MH_920_48	291.086602	0.010000	0.000000	0.000000	0.000000	0.000000
; Gravity
GM-929_114	MH_929_114	MH_929_111	169.026625	0.010000	0.000000	0.000000	0.000000	0.000000
; Gravity
GM-929_115	MH_929_115	MH_929_103	232.408606	0.010000	0.000000	0.000000	0.000000	0.000000
; Gravity
GM-929_116	MH_929_116	MH_929_104	236.052960	0.010000	0.000000	0.000000	0.000000	0.000000
; Gravity
GM-929_118	MH_929_118	MH_929_114	292.515709	0.010000	0.000000	0.000000	0.000000	0.000000
; Gravity
GM-929_119	MH_929_119	MH_929_108	276.701839	0.010000	0.000000	0.000000	0.000000	0.000000
; Gravity
GM-929_12	MH_929_12	MH_929_10	350.002414	0.010000	0.000000	0.000000	0.000000	0.000000
; Gravity
GM-929_120	MH_929_120	MH_929_106	284.701788	0.010000	0.000000	0.000000	0.000000	0.000000
; Gravity
GM-929_121	MH_929_121	MH_929_109	358.722270	0.010000	0.000000	0.000000	0.000000	0.000000
; Gravity
GM-929_122	MH_929_122	MH_929_120	185.643099	0.010000	0.000000	0.000000	0.000000	0.000000
; Gravity
GM-929_123	MH_929_123	MH_929_122	258.002345	0.010000	0.000000	0.000000	0.000000	0.000000
; Gravity
GM-929_124	MH_929_124	MH_929_116	263.568335	0.010000	0.000000	0.000000	0.000000	0.000000
; Gravity
GM-929_125	MH_929_125	MH_929_115	285.528052	0.010000	0.000000	0.000000	0.000000	0.000000
; Gravity
GM-929_126	MH_929_126	MH_929_119	224.308885	0.010000	0.000000	0.000000	0.000000	0.000000
; Gravity
GM-929_128	MH_929_128	MH_929_122	115.069544	0.010000	0.000000	0.000000	0.000000	0.000000
; Gravity
GM-929_13	MH_929_13	MH_929_12	223.060620	0.010000	0.000000	0.000000	0.000000	0.000000
; Gravity
GM-929_130	MH_929_130	MH_929_131	276.646361	0.010000	0.000000	0.000000	0.000000	0.000000
; Gravity
GM-929_131	MH_929_131	MH_929_133	367.595648	0.010000	0.000000	0.000000	0.000000	0.000000
; Gravity
GM-929_132	MH_929_132	MH_929_134	366.039834	0.010000	0.000000	0.000000	0.000000	0.000000
; Gravity
GM-929_133	MH_929_133	MH_929_138	335.446032	0.010000	0.000000	0.000000	0.000000	0.000000
; Gravity
GM-929_134	MH_929_134	MH_929_135	330.045831	0.010000	0.000000	0.000000	0.000000	0.000000
; Gravity
GM-929_135	MH_929_135	MH_929_136	338.044745	0.010000	0.000000	0.000000	0.000000	0.000000
; Gravity
GM-929_136	MH_929_136	MH_929_125	334.153840	0.010000	0.000000	0.000000	0.000000	0.000000
; Gravity
GM-929_137	MH_929_137	MH_929_124	378.084647	0.010000	0.000000	0.000000	0.000000	0.000000
; Gravity
GM-929_138	MH_929_138	MH_929_149	341.346510	0.010000	0.000000	0.000000	0.000000	0.000000
; Gravity
GM-929_14	MH_929_14	MH_929_15	191.221442	0.010000	0.000000	0.000000	0.000000	0.000000
; Gravity
GM-929_140	MH_929_140	MH_929_128	313.714313	0.010000	0.000000	0.000000	0.000000	0.000000
; Gravity
GM-929_142	MH_929_142	MH_929_146	361.011080	0.010000	0.000000	0.000000	0.000000	0.000000
; Gravity
GM-929_143	MH_929_143	MH_929_150	348.582131	0.010000	0.000000	0.000000	0.000000	0.000000
; Gravity
GM-929_144	MH_929_144	MH_929_134	221.200000	0.010000	0.000000	0.000000	0.000000	0.000000
; Gravity
GM-929_145	MH_929_145	MH_929_135	224.899968	0.010000	0.000000	0.000000	0.000000	0.000000
; Gravity
GM-929_146	MH_929_146	MH_929_148	237.556087	0.010000	0.000000	0.000000	0.000000	0.000000
; Gravity
GM-929_147	MH_929_147	MH_929_143	102.229212	0.010000	0.000000	0.000000	0.000000	0.000000
; Gravity
GM-929_148	MH_929_148	MH_929_149	372.660012	0.010000	0.000000	0.000000	0.000000	0.000000
; Gravity
GM-929_149	MH_929_149	MH_929_161	220.042360	0.010000	0.000000	0.000000	0.000000	0.000000
; Gravity
GM-929_15	MH_929_15	MH_929_16	219.096441	0.010000	0.000000	0.000000	0.000000	0.000000
; Gravity
GM-929_150	MH_929_150	MH_929_165	329.655639	0.010000	0.000000	0.000000	0.000000	0.000000
; Gravity
GM-929_151	MH_929_151	MH_929_145	180.924906	0.010000	0.000000	0.000000	0.000000	0.000000
; Gravity
GM-929_152	MH_929_152	MH_929_144	195.640896	0.010000	0.000000	0.000000	0.000000	0.000000
; Gravity
GM-929_153	MH_929_153	MH_929_140	386.204913	0.010000	0.000000	0.000000	0.000000	0.000000
; Gravity
GM-929_154	MH_929_154	MH_929_136	447.827914	0.010000	0.000000	0.000000	0.000000	0.000000
; Gravity
GM-929_155	MH_929_155	MH_929_137	418.696740	0.010000	0.000000	0.000000	0.000000	0.000000
; Gravity
GM-929_158	MH_929_158	MH_929_175	439.754740	0.010000	0.000000	0.000000	0.000000	0.000000
; Gravity
GM-929_16	MH_929_16	MH_929_11	185.893948	0.010000	0.000000	0.000000	0.000000	0.000000
; Gravity
GM-929_161	MH_929_161	MH_929_171	167.740991	0.010000	0.000000	0.000000	0.000000	0.000000
; Gravity
GM-929_162	MH_929_162	MH_929_164	234.126655	0.010000	0.000000	0.000000	0.000000	0.000000
; Gravity
GM-929_164	MH_929_164	MH_929_166	262.049632	0.010000	0.000000	0.000000	0.000000	0.000000
; Gravity
GM-929_165	MH_929_165	MH_929_184	435.057911	0.010000	0.000000	0.000000	0.000000	0.000000
; Gravity
GM-929_166	MH_929_166	MH_929_167	265.006812	0.010000	0.000000	0.000000	0.000000	0.000000
; Gravity
GM-929_167	MH_929_167	MH_929_168	237.215112	0.010000	0.000000	0.000000	0.000000	0.000000
; Gravity
GM-929_168	MH_929_168	MH_929_180	284.907052	0.010000	0.000000	0.000000	0.000000	0.000000
; Gravity
GM-929_169	MH_929_169	MH_929_162	43.665089	0.010000	0.000000	0.000000	0.000000	0.000000
; Gravity
GM-929_17	MH_929_17	MH_929_25	348.170343	0.010000	0.000000	0.000000	0.000000	0.000000
; Gravity
GM-929_171	MH_929_171	MH_929_184	308.543417	0.010000	0.000000	0.000000	0.000000	0.000000
; Gravity
GM-929_174	MH_929_174	MH_929_171	211.052350	0.010000	0.000000	0.000000	0.000000	0.000000
; Gravity
GM-929_175	MH_929_175	MH_929_198	351.707890	0.010000	0.000000	0.000000	0.000000	0.000000
; Gravity
GM-929_176	MH_929_176	MH_929_166	277.007220	0.010000	0.000000	0.000000	0.000000	0.000000
; Gravity
GM-929_177	MH_929_177	MH_929_169	254.049208	0.010000	0.000000	0.000000	0.000000	0.000000
; Gravity
GM-929_18	MH_929_18	MH_929_4	428.099968	0.010000	0.000000	0.000000	0.000000	0.000000
; Gravity
GM-929_180	MH_929_180	MH_929_196	253.531524	0.010000	0.000000	0.000000	0.000000	0.000000
; Gravity
GM-929_181	MH_929_181	MH_929_167	349.070194	0.010000	0.000000	0.000000	0.000000	0.000000
; Gravity
GM-929_182	MH_929_182	MH_929_164	359.934699	0.010000	0.000000	0.000000	0.000000	0.000000
; Gravity
GM-929_184	MH_929_184	MH_929_198	315.966834	0.010000	0.000000	0.000000	0.000000	0.000000
; Gravity
GM-929_188	MH_929_188	MH_929_184	166.761555	0.010000	0.000000	0.000000	0.000000	0.000000
; Gravity
GM-929_19	MH_929_19	MH_929_23	289.023678	0.010000	0.000000	0.000000	0.000000	0.000000
; Gravity
GM-929_190	MH_929_190	MH_929_188	240.772272	0.010000	0.000000	0.000000	0.000000	0.000000
; Gravity
GM-929_196	MH_929_196	WW-228	230.382159	0.010000	0.000000	0.000000	0.000000	0.000000
; Gravity
GM-929_198	MH_929_198	MH_929_199	35.777088	0.010000	0.000000	0.000000	0.000000	0.000000
; Gravity
GM-929_199	MH_929_199	WW-232	30.180018	0.010000	0.000000	0.000000	0.000000	0.000000
; Gravity
GM-929_2	MH_929_2	MH_929_15	393.831741	0.010000	0.000000	0.000000	0.000000	0.000000
; Gravity
GM-929_20	MH_929_20	MH_920_15	297.047286	0.010000	0.000000	0.000000	0.000000	0.000000
; Gravity
GM-929_201	MH_929_201	MH_929_177	337.072693	0.010000	0.000000	0.000000	0.000000	0.000000
; Gravity
GM-929_204	MH_929_204	MH_929_198	191.556829	0.010000	0.000000	0.000000	0.000000	0.000000
; Gravity
GM-929_205	MH_929_205	MH_929_227	363.805498	0.010000	0.000000	0.000000	0.000000	0.000000
; Gravity
GM-929_206	MH_929_206	MH_929_226	357.400000	0.010000	0.000000	0.000000	0.000000	0.000000
; Gravity
GM-929_207	MH_929_207	MH_929_223	266.101847	0.010000	0.000000	0.000000	0.000000	0.000000
; Gravity
GM-929_209	MH_929_209	MH_920_66	155.207869	0.010000	0.000000	0.000000	0.000000	0.000000
; Gravity
GM-929_21	MH_929_21	MH_929_22	225.016200	0.010000	0.000000	0.000000	0.000000	0.000000
; Gravity
GM-929_211	MH_929_211	MH_929_201	177.400000	0.010000	0.000000	0.000000	0.000000	0.000000
; Gravity
GM-929_212	MH_929_212	MH_929_204	247.624480	0.010000	0.000000	0.000000	0.000000	0.000000
; Gravity
GM-929_213	MH_929_213	MH_929_212	213.693706	0.010000	0.000000	0.000000	0.000000	0.000000
; Gravity
GM-929_214	MH_929_214	MH_929_209	181.563478	0.010000	0.000000	0.000000	0.000000	0.000000
; Gravity
GM-929_217	MH_929_217	MH_929_196	349.000000	0.010000	0.000000	0.000000	0.000000	0.000000
; Gravity
GM-929_218	MH_929_218	MH_929_224	154.435364	0.010000	0.000000	0.000000	0.000000	0.000000
; Gravity
GM-929_22	MH_929_22	WW-227	60.623468	0.010000	0.000000	0.000000	0.000000	0.000000
; Gravity
GM-929_221	MH_929_221	MH_929_214	153.659508	0.010000	0.000000	0.000000	0.000000	0.000000
; Gravity
GM-929_223	MH_929_223	MH_929_217	261.563683	0.010000	0.000000	0.000000	0.000000	0.000000
; Gravity
GM-929_224	MH_929_224	MH_929_226	204.934363	0.010000	0.000000	0.000000	0.000000	0.000000
; Gravity
GM-929_226	MH_929_226	MH_929_227	264.003201	0.010000	0.000000	0.000000	0.000000	0.000000
; Gravity
GM-929_227	MH_929_227	MH_929_223	278.154202	0.010000	0.000000	0.000000	0.000000	0.000000
; Gravity
GM-929_23	MH_929_23	MH_929_21	285.123763	0.010000	0.000000	0.000000	0.000000	0.000000
; Gravity
GM-929_230	MH_929_230	MH_929_239	137.472034	0.010000	0.000000	0.000000	0.000000	0.000000
; Gravity
GM-929_239	MH_929_239	MH_929_221	287.651804	0.010000	0.000000	0.000000	0.000000	0.000000
; Gravity
GM-929_24	MH_929_24	MH_929_22	104.730152	0.010000	0.000000	0.000000	0.000000	0.000000
; Gravity
GM-929_240	MH_929_240	MH_929_230	188.281704	0.010000	0.000000	0.000000	0.000000	0.000000
; Gravity
GM-929_25	MH_929_25	MH_929_35	337.753330	0.010000	0.000000	0.000000	0.000000	0.000000
; Gravity
GM-929_26	MH_929_26	MH_929_15	431.674137	0.010000	0.000000	0.000000	0.000000	0.000000
; Gravity
GM-929_27	MH_929_27	MH_929_33	291.384062	0.010000	0.000000	0.000000	0.000000	0.000000
; Gravity
GM-929_28	MH_929_28	MH_929_23	312.978322	0.010000	0.000000	0.000000	0.000000	0.000000
; Gravity
GM-929_29	MH_929_29	MH_929_19	373.287271	0.010000	0.000000	0.000000	0.000000	0.000000
; Gravity
GM-929_3	MH_929_3	MH_929_14	377.024191	0.010000	0.000000	0.000000	0.000000	0.000000
; Gravity
GM-929_30	MH_929_30	MH_929_21	337.813322	0.010000	0.000000	0.000000	0.000000	0.000000
; Gravity
GM-929_32	MH_929_32	MH_929_33	329.037992	0.010000	0.000000	0.000000	0.000000	0.000000
; Gravity
GM-929_33	MH_929_33	MH_929_35	334.022769	0.010000	0.000000	0.000000	0.000000	0.000000
; Gravity
GM-929_34	MH_929_34	MH_929_37	334.040477	0.010000	0.000000	0.000000	0.000000	0.000000
; Gravity
GM-929_35	MH_929_35	MH_929_36	334.002530	0.010000	0.000000	0.000000	0.000000	0.000000
; Gravity
GM-929_36	MH_929_36	MH_929_26	314.239781	0.010000	0.000000	0.000000	0.000000	0.000000
; Gravity
GM-929_37	MH_929_37	MH_929_38	364.020893	0.010000	0.000000	0.000000	0.000000	0.000000
; Gravity
GM-929_38	MH_929_38	MH_929_39	285.051154	0.010000	0.000000	0.000000	0.000000	0.000000
; Gravity
GM-929_39	MH_929_39	MH_929_24	389.746219	0.010000	0.000000	0.000000	0.000000	0.000000
; Gravity
GM-929_4	MH_929_4	MH_930_169	281.387114	0.010000	0.000000	0.000000	0.000000	0.000000
; Gravity
GM-929_40	MH_929_40	MH_929_46	267.161450	0.010000	0.000000	0.000000	0.000000	0.000000
; Gravity
GM-929_44	MH_929_44	MH_929_46	569.014060	0.010000	0.000000	0.000000	0.000000	0.000000
; Gravity
GM-929_46	MH_929_46	MH_929_57	272.142316	0.010000	0.000000	0.000000	0.000000	0.000000
; Gravity
GM-929_47	MH_929_47	MH_929_48	423.062986	0.010000	0.000000	0.000000	0.000000	0.000000
; Gravity
GM-929_48	MH_929_48	MH_929_49	64.823535	0.010000	0.000000	0.000000	0.000000	0.000000
; Gravity
GM-929_49	MH_929_49	MH_929_50	480.020167	0.010000	0.000000	0.000000	0.000000	0.000000
; Gravity
GM-929_5	MH_929_5	MH_929_7	334.467769	0.010000	0.000000	0.000000	0.000000	0.000000
; Gravity
GM-929_50	MH_929_50	MH_929_51	346.003252	0.010000	0.000000	0.000000	0.000000	0.000000
; Gravity
GM-929_51	MH_929_51	MH_929_36	307.406506	0.010000	0.000000	0.000000	0.000000	0.000000
; Gravity
GM-929_52	MH_929_52	MH_929_51	360.105111	0.010000	0.000000	0.000000	0.000000	0.000000
; Gravity
GM-929_53	MH_929_53	MH_929_52	328.081224	0.010000	0.000000	0.000000	0.000000	0.000000
; Gravity
GM-929_54	MH_929_54	MH_929_53	445.071905	0.010000	0.000000	0.000000	0.000000	0.000000
; Gravity
GM-929_56	MH_929_56	MH_929_47	159.628193	0.010000	0.000000	0.000000	0.000000	0.000000
; Gravity
GM-929_57	MH_929_57	MH_929_63	223.872196	0.010000	0.000000	0.000000	0.000000	0.000000
; Gravity
GM-929_58	MH_929_58	MH_929_44	196.791457	0.010000	0.000000	0.000000	0.000000	0.000000
; Gravity
GM-929_59	MH_929_59	MH_929_68	174.225831	0.010000	0.000000	0.000000	0.000000	0.000000
; Gravity
GM-929_6	MH_929_6	WW-226	24.170003	0.010000	0.000000	0.000000	0.000000	0.000000
; Gravity
GM-929_63	MH_929_63	MH_920_41	409.025868	0.010000	0.000000	0.000000	0.000000	0.000000
; Gravity
GM-929_64	MH_929_64	MH_929_65	333.004865	0.010000	0.000000	0.000000	0.000000	0.000000
; Gravity
GM-929_65	MH_929_65	MH_929_66	281.007118	0.010000	0.000000	0.000000	0.000000	0.000000
; Gravity
GM-929_66	MH_929_66	MH_929_63	337.079056	0.010000	0.000000	0.000000	0.000000	0.000000
; Gravity
GM-929_67	MH_929_67	MH_929_70	349.160937	0.010000	0.000000	0.000000	0.000000	0.000000
; Gravity
GM-929_68	MH_929_68	MH_929_67	289.092182	0.010000	0.000000	0.000000	0.000000	0.000000
; Gravity
GM-929_69	MH_929_69	MH_929_72	340.012367	0.010000	0.000000	0.000000	0.000000	0.000000
; Gravity
GM-929_7	MH_929_7	MH_929_9	373.425709	0.010000	0.000000	0.000000	0.000000	0.000000
; Gravity
GM-929_70	MH_929_70	MH_929_90	329.006079	0.010000	0.000000	0.000000	0.000000	0.000000
; Gravity
GM-929_71	MH_929_71	MH_929_70	277.002184	0.010000	0.000000	0.000000	0.000000	0.000000
; Gravity
GM-929_72	MH_929_72	MH_929_73	253.105295	0.010000	0.000000	0.000000	0.000000	0.000000
; Gravity
GM-929_73	MH_929_73	MH_929_74	321.000000	0.010000	0.000000	0.000000	0.000000	0.000000
; Gravity
GM-929_74	MH_929_74	MH_929_68	267.256227	0.010000	0.000000	0.000000	0.000000	0.000000
; Gravity
GM-929_75	MH_929_75	MH_929_71	216.195837	0.010000	0.000000	0.000000	0.000000	0.000000
; Gravity
GM-929_77	MH_929_77	MH_929_64	197.263377	0.010000	0.000000	0.000000	0.000000	0.000000
; Gravity
GM-929_78	MH_929_78	MH_929_88	117.100032	0.010000	0.000000	0.000000	0.000000	0.000000
; Gravity
GM-929_8	MH_929_8	MH_929_1	247.929103	0.010000	0.000000	0.000000	0.000000	0.000000
; Gravity
GM-929_80	MH_929_80	MH_929_82	329.003420	0.010000	0.000000	0.000000	0.000000	0.000000
; Gravity
GM-929_81	MH_929_81	MH_929_85	361.049858	0.010000	0.000000	0.000000	0.000000	0.000000
; Gravity
GM-929_82	MH_929_82	MH_929_84	260.037228	0.010000	0.000000	0.000000	0.000000	0.000000
; Gravity
GM-929_84	MH_929_84	MH_929_87	428.123919	0.010000	0.000000	0.000000	0.000000	0.000000
; Gravity
GM-929_85	MH_929_85	MH_929_86	382.094557	0.010000	0.000000	0.000000	0.000000	0.000000
; Gravity
GM-929_86	MH_929_86	MH_920_43	325.025860	0.010000	0.000000	0.000000	0.000000	0.000000
; Gravity
GM-929_87	MH_929_87	MH_929_88	298.014111	0.010000	0.000000	0.000000	0.000000	0.000000
; Gravity
GM-929_88	MH_929_88	MH_929_89	394.033006	0.010000	0.000000	0.000000	0.000000	0.000000
; Gravity
GM-929_89	MH_929_89	MH_929_90	247.052647	0.010000	0.000000	0.000000	0.000000	0.000000
; Gravity
GM-929_9	MH_929_9	MH_929_10	140.150813	0.010000	0.000000	0.000000	0.000000	0.000000
; Gravity
GM-929_90	MH_929_90	MH_929_91	366.030176	0.010000	0.000000	0.000000	0.000000	0.000000
; Gravity
GM-929_91	MH_929_91	MH_929_92	273.117191	0.010000	0.000000	0.000000	0.000000	0.000000
; Gravity
GM-929_92	MH_929_92	MH_929_107	305.100032	0.010000	0.000000	0.000000	0.000000	0.000000
; Gravity
GM-929_93	MH_929_93	MH_929_88	149.330106	0.010000	0.000000	0.000000	0.000000	0.000000
; Gravity
GM-929_99	MH_929_99	MH_929_100	334.079766	0.010000	0.000000	0.000000	0.000000	0.000000
; Gravity
GM-930_1	MH_930_1	MH_825_11	245.176314	0.010000	0.000000	0.000000	0.000000	0.000000
; Gravity
GM-930_100	MH_930_100	MH_930_109	279.344719	0.010000	0.000000	0.000000	0.000000	0.000000
; Gravity
GM-930_101	MH_930_101	MH_930_114	481.309318	0.010000	0.000000	0.000000	0.000000	0.000000
; Gravity
GM-930_102	MH_930_102	MH_930_110	267.691539	0.010000	0.000000	0.000000	0.000000	0.000000
; Gravity
GM-930_103	MH_930_103	MH_930_122	801.940298	0.010000	0.000000	0.000000	0.000000	0.000000
; Gravity
GM-930_104	MH_930_104	MH_930_112	286.662799	0.010000	0.000000	0.000000	0.000000	0.000000
; Gravity
GM-930_105	MH_930_105	MH_930_106	68.264193	0.010000	0.000000	0.000000	0.000000	0.000000
; Gravity
GM-930_106	MH_930_106	MH_930_111	170.705478	0.010000	0.000000	0.000000	0.000000	0.000000
; Gravity
GM-930_107	MH_930_107	MH_930_108	233.051517	0.010000	0.000000	0.000000	0.000000	0.000000
; Gravity
GM-930_108	MH_930_108	MH_930_109	283.130641	0.010000	0.000000	0.000000	0.000000	0.000000
; Gravity
GM-930_109	MH_930_109	MH_930_120	462.955549	0.010000	0.000000	0.000000	0.000000	0.000000
; Gravity
GM-930_110	MH_930_110	MH_930_123	558.229027	0.010000	0.000000	0.000000	0.000000	0.000000
; Gravity
GM-930_111	MH_930_111	MH_930_113	80.870514	0.010000	0.000000	0.000000	0.000000	0.000000
; Gravity
GM-930_112	MH_930_112	MH_930_115	253.271080	0.010000	0.000000	0.000000	0.000000	0.000000
; Gravity
GM-930_113	MH_930_113	MH_930_112	263.112694	0.010000	0.000000	0.000000	0.000000	0.000000
; Gravity
GM-930_114	MH_930_114	MH_930_116	219.745671	0.010000	0.000000	0.000000	0.000000	0.000000
; Gravity
GM-930_115	MH_930_115	MH_930_117	95.744898	0.010000	0.000000	0.000000	0.000000	0.000000
; Gravity
GM-930_116	MH_930_116	MH_930_126	250.171993	0.010000	0.000000	0.000000	0.000000	0.000000
; Gravity
GM-930_117	MH_930_117	MH_930_118	730.095364	0.010000	0.000000	0.000000	0.000000	0.000000
; Gravity
GM-930_118	MH_930_118	MH_930_119	252.021607	0.010000	0.000000	0.000000	0.000000	0.000000
; Gravity
GM-930_119	MH_930_119	MH_930_120	67.021563	0.010000	0.000000	0.000000	0.000000	0.000000
; Gravity
GM-930_120	MH_930_120	MH_930_127	224.435648	0.010000	0.000000	0.000000	0.000000	0.000000
; Gravity
GM-930_121	MH_930_121	MH_930_128	139.000000	0.010000	0.000000	0.000000	0.000000	0.000000
; Gravity
GM-930_122	MH_930_122	MH_930_129	159.003145	0.010000	0.000000	0.000000	0.000000	0.000000
; Gravity
GM-930_123	MH_930_123	MH_930_133	373.165629	0.010000	0.000000	0.000000	0.000000	0.000000
; Gravity
GM-930_124	MH_930_124	MH_930_135	380.706396	0.010000	0.000000	0.000000	0.000000	0.000000
; Gravity
GM-930_125	MH_930_125	MH_930_119	216.102282	0.010000	0.000000	0.000000	0.000000	0.000000
; Gravity
GM-930_126	MH_930_126	MH_930_132	284.742270	0.010000	0.000000	0.000000	0.000000	0.000000
; Gravity
GM-930_127	MH_930_127	MH_930_131	283.254303	0.010000	0.000000	0.000000	0.000000	0.000000
; Gravity
GM-930_128	MH_930_128	MH_930_130	521.874545	0.010000	0.000000	0.000000	0.000000	0.000000
; Gravity
GM-930_129	MH_930_129	MH_930_134	232.308642	0.010000	0.000000	0.000000	0.000000	0.000000
; Gravity
GM-930_130	MH_930_130	MH_930_125	196.525215	0.010000	0.000000	0.000000	0.000000	0.000000
; Gravity
GM-930_131	MH_930_131	MH_930_132	326.000016	0.010000	0.000000	0.000000	0.000000	0.000000
; Gravity
GM-930_132	MH_930_132	MH_930_133	335.248280	0.010000	0.000000	0.000000	0.000000	0.000000
; Gravity
GM-930_133	MH_930_133	MH_930_134	336.066795	0.010000	0.000000	0.000000	0.000000	0.000000
; Gravity
GM-930_134	MH_930_134	MH_930_135	330.104362	0.010000	0.000000	0.000000	0.000000	0.000000
; Gravity
GM-930_135	MH_930_135	MH_930_141	231.500032	0.010000	0.000000	0.000000	0.000000	0.000000
; Gravity
GM-930_136	MH_930_136	MH_930_137	415.054081	0.010000	0.000000	0.000000	0.000000	0.000000
; Gravity
GM-930_137	MH_930_137	MH_930_138	472.047551	0.010000	0.000000	0.000000	0.000000	0.000000
; Gravity
GM-930_138	MH_930_138	MH_930_145	328.224375	0.010000	0.000000	0.000000	0.000000	0.000000
; Gravity
GM-930_139	MH_930_139	MH_930_136	109.131145	0.010000	0.000000	0.000000	0.000000	0.000000
; Gravity
GM-930_140	MH_930_140	MH_930_134	226.107491	0.010000	0.000000	0.000000	0.000000	0.000000
; Gravity
GM-930_141	MH_930_141	MH_930_150	351.451220	0.010000	0.000000	0.000000	0.000000	0.000000
; Gravity
GM-930_142	MH_930_142	MH_930_143	123.916173	0.010000	0.000000	0.000000	0.000000	0.000000
; Gravity
GM-930_143	MH_930_143	MH_930_144	266.020469	0.010000	0.000000	0.000000	0.000000	0.000000
; Gravity
GM-930_144	MH_930_144	MH_930_146	404.126231	0.010000	0.000000	0.000000	0.000000	0.000000
; Gravity
GM-930_145	MH_930_145	MH_930_147	144.066258	0.010000	0.000000	0.000000	0.000000	0.000000
; Gravity
GM-930_146	MH_930_146	MH_930_145	320.110231	0.010000	0.000000	0.000000	0.000000	0.000000
; Gravity
GM-930_147	MH_930_147	MH_930_155	262.807610	0.010000	0.000000	0.000000	0.000000	0.000000
; Gravity
GM-930_148	MH_930_148	MH_930_140	403.663672	0.010000	0.000000	0.000000	0.000000	0.000000
; Gravity
GM-930_149	MH_930_149	MH_930_143	105.542614	0.010000	0.000000	0.000000	0.000000	0.000000
; Gravity
GM-930_150	MH_930_150	MH_919_221	209.838128	0.010000	0.000000	0.000000	0.000000	0.000000
; Gravity
GM-930_151	MH_930_151	MH_930_158	127.362796	0.010000	0.000000	0.000000	0.000000	0.000000
; Gravity
GM-930_152	MH_930_152	MH_930_148	172.597335	0.010000	0.000000	0.000000	0.000000	0.000000
; Gravity
GM-930_153	MH_930_153	MH_930_155	169.073948	0.010000	0.000000	0.000000	0.000000	0.000000
; Gravity
GM-930_154	MH_930_154	MH_930_156	352.041418	0.010000	0.000000	0.000000	0.000000	0.000000
; Gravity
GM-930_155	MH_930_155	MH_930_166	313.278215	0.010000	0.000000	0.000000	0.000000	0.000000
; Gravity
GM-930_156	MH_930_156	MH_930_164	300.099968	0.010000	0.000000	0.000000	0.000000	0.000000
; Gravity
GM-930_157	MH_930_157	MH_930_158	75.019264	0.010000	0.000000	0.000000	0.000000	0.000000
; Gravity
GM-930_158	MH_930_158	MH_930_160	292.076857	0.010000	0.000000	0.000000	0.000000	0.000000
; Gravity
GM-930_159	MH_930_159	MH_930_146	331.717092	0.010000	0.000000	0.000000	0.000000	0.000000
; Gravity
GM-930_160	MH_930_160	MH_930_159	375.034679	0.010000	0.000000	0.000000	0.000000	0.000000
; Gravity
GM-930_161	MH_930_161	MH_930_152	219.364172	0.010000	0.000000	0.000000	0.000000	0.000000
; Gravity
GM-930_162	MH_930_162	MH_930_163	115.369395	0.010000	0.000000	0.000000	0.000000	0.000000
; Gravity
GM-930_163	MH_930_163	MH_930_165	189.570802	0.010000	0.000000	0.000000	0.000000	0.000000
; Gravity
GM-930_164	MH_930_164	MH_930_165	167.191507	0.010000	0.000000	0.000000	0.000000	0.000000
; Gravity
GM-930_165	MH_930_165	MH_930_172	191.426853	0.010000	0.000000	0.000000	0.000000	0.000000
; Gravity
GM-930_166	MH_930_166	MH_930_175	193.265678	0.010000	0.000000	0.000000	0.000000	0.000000
; Gravity
GM-930_167	MH_930_167	MH_930_168	276.110196	0.010000	0.000000	0.000000	0.000000	0.000000
; Gravity
GM-930_168	MH_930_168	MH_930_170	313.097174	0.010000	0.000000	0.000000	0.000000	0.000000
; Gravity
GM-930_169	MH_930_169	MH_930_171	314.087186	0.010000	0.000000	0.000000	0.000000	0.000000
; Gravity
GM-930_170	MH_930_170	MH_930_173	463.045624	0.010000	0.000000	0.000000	0.000000	0.000000
; Gravity
GM-930_171	MH_930_171	MH_930_172	307.003192	0.010000	0.000000	0.000000	0.000000	0.000000
; Gravity
GM-930_172	MH_930_172	MH_930_167	48.578687	0.010000	0.000000	0.000000	0.000000	0.000000
; Gravity
GM-930_173	MH_930_173	MH_930_174	332.042302	0.010000	0.000000	0.000000	0.000000	0.000000
; Gravity
GM-930_174	MH_930_174	MH_930_175	225.000000	0.010000	0.000000	0.000000	0.000000	0.000000
; Gravity
GM-930_175	MH_930_175	MH_929_6	332.068427	0.010000	0.000000	0.000000	0.000000	0.000000
; Gravity
GM-930_176	MH_930_176	MH_930_175	263.000000	0.010000	0.000000	0.000000	0.000000	0.000000
; Gravity
GM-930_177	MH_930_177	MH_930_176	209.036384	0.010000	0.000000	0.000000	0.000000	0.000000
; Gravity
GM-930_178	MH_930_178	MH_930_161	357.374360	0.010000	0.000000	0.000000	0.000000	0.000000
; Gravity
GM-930_179	MH_930_179	MH_920_1	104.406130	0.010000	0.000000	0.000000	0.000000	0.000000
; Gravity
GM-930_2	MH_930_2	MH_930_1	343.218893	0.010000	0.000000	0.000000	0.000000	0.000000
; Gravity
GM-930_3	MH_930_3	MH_930_2	403.031017	0.010000	0.000000	0.000000	0.000000	0.000000
; Gravity
GM-930_4	MH_930_4	MH_930_3	315.062995	0.010000	0.000000	0.000000	0.000000	0.000000
; Gravity
GM-930_46	MH_930_46	WW-220	33.617495	0.010000	0.000000	0.000000	0.000000	0.000000
; Gravity
GM-930_47	MH_930_47	MH_930_48	14.001429	0.010000	0.000000	0.000000	0.000000	0.000000
; Gravity
GM-930_48	MH_930_48	MH_930_46	46.143354	0.010000	0.000000	0.000000	0.000000	0.000000
; Gravity
GM-930_5	MH_930_5	MH_930_6	157.000000	0.010000	0.000000	0.000000	0.000000	0.000000
; Gravity
GM-930_6	MH_930_6	MH_930_4	322.002236	0.010000	0.000000	0.000000	0.000000	0.000000
; Gravity
GM-930_96	MH_930_96	MH_930_98	377.175358	0.010000	0.000000	0.000000	0.000000	0.000000
; Gravity
GM-930_97	MH_930_97	MH_930_96	37.034578	0.010000	0.000000	0.000000	0.000000	0.000000
; Gravity
GM-930_98	MH_930_98	MH_930_99	412.013216	0.010000	0.000000	0.000000	0.000000	0.000000
; Gravity
GM-930_99	MH_930_99	MH_919_120	58.227485	0.010000	0.000000	0.000000	0.000000	0.000000
; Forcemain
PX-9609	JX-6929	JN_919_3	662.040248	0.010000	0.000000	0.000000	0.000000	0.000000
WW-147_BC_CON	WW-147	WW-147_BC	27.620734	0.010000	20.300000	0.000000	0.000000	0.000000
WW-232_COND	WW-232	WW-232_OUTFALL	30.479145	0.010000	10.000000	0.000000	0.000000	100.000000

[PUMPS]
;   Wet Well Pump
PMP1-1002	WW-1002	J-1002-OUT	CURVE_109	ON	0.000000	0.000000
;   Wet Well Pump
PMP1-1003	WW-1003	J-1003-OUT	CURVE_109	ON	0.000000	0.000000
;   Wet Well Pump
PMP1-147	WW-147	J-147-OUT	CURVE_45	ON	0.000000	0.000000
;   Wet Well Pump
PMP1-220	WW-220	J-220-OUT	CURVE_17	ON	0.000000	0.000000
;   Wet Well Pump
PMP1-221	WW-221	J-221-OUT	CURVE_1	ON	0.000000	0.000000
;   Wet Well Pump
PMP1-222	WW-222	J-222-OUT	CURVE_114	ON	0.000000	0.000000
;   Wet Well Pump
PMP1-223	WW-223	J-223-OUT	CURVE_55	ON	0.000000	0.000000
;   Wet Well Pump
PMP1-224	WW-224	J-224-OUT	CURVE_106	ON	0.000000	0.000000
;   Wet Well Pump
PMP1-225	WW-225	J-225-OUT	CURVE_19	ON	0.000000	0.000000
;   Wet Well Pump
PMP1-226	WW-226	J-226-OUT	CURVE_14	ON	0.000000	0.000000
;   Wet Well Pump
PMP1-227	WW-227	J-227-OUT	CURVE_88	ON	0.000000	0.000000
;   Wet Well Pump
PMP1-228	WW-228	J-228-OUT	CURVE_105	ON	0.000000	0.000000
;   Wet Well Pump
PMP1-229	WW-229	J-229-OUT	CURVE_27	ON	0.000000	0.000000
;   Wet Well Pump
PMP1-230	WW-230	J-230-OUT	CURVE_18	ON	0.000000	0.000000
;   Wet Well Pump
PMP1-231	WW-231	J-231-OUT	CURVE_89	ON	0.000000	0.000000
;   Wet Well Pump
PMP1-232	WW-232	J-232-OUT	CURVE_35	ON	0.000000	0.000000
;   Wet Well Pump
PMP1-242	WW-242	J-242-OUT	CURVE_99	ON	0.000000	0.000000
;   Wet Well Pump
PMP1-243	WW-243	J-243-OUT	CURVE_116	ON	0.000000	0.000000
;   Wet Well Pump
PMP1-246	WW-246	J-246-OUT	CURVE_37	ON	0.000000	0.000000
;   Wet Well Pump
PMP1-247	WW-247	J-247-OUT	CURVE_107	ON	0.000000	0.000000
;   Wet Well Pump
PMP1-250	WW-250	J-250-OUT	CURVE_95	ON	0.000000	0.000000
;   Wet Well Pump
PMP1-251	WW-251	J-251-OUT	CURVE_77	ON	0.000000	0.000000
;   Wet Well Pump
PMP1-258	WW-258	J-258-OUT	CURVE_123	ON	0.000000	0.000000
;   Wet Well Pump
PMP2-1002	WW-1002	J-1002-OUT	CURVE_109	ON	0.000000	0.000000
;   Wet Well Pump
PMP2-1003	WW-1003	J-1003-OUT	CURVE_109	ON	0.000000	0.000000
;   Wet Well Pump
PMP2-147	WW-147	J-147-OUT	CURVE_45	ON	0.000000	0.000000
;   Wet Well Pump
PMP2-220	WW-220	J-220-OUT	CURVE_17	ON	0.000000	0.000000
;   Wet Well Pump
PMP2-221	WW-221	J-221-OUT	CURVE_1	ON	0.000000	0.000000
;   Wet Well Pump
PMP2-222	WW-222	J-222-OUT	CURVE_114	ON	0.000000	0.000000
;   Wet Well Pump
PMP2-223	WW-223	J-223-OUT	CURVE_55	ON	0.000000	0.000000
;   Wet Well Pump
PMP2-224	WW-224	J-224-OUT	CURVE_106	ON	0.000000	0.000000
;   Wet Well Pump
PMP2-225	WW-225	J-225-OUT	CURVE_19	ON	0.000000	0.000000
;   Wet Well Pump
PMP2-226	WW-226	J-226-OUT	CURVE_14	ON	0.000000	0.000000
;   Wet Well Pump
PMP2-227	WW-227	J-227-OUT	CURVE_88	ON	0.000000	0.000000
;   Wet Well Pump
PMP2-228	WW-228	J-228-OUT	CURVE_105	ON	0.000000	0.000000
;   Wet Well Pump
PMP2-229	WW-229	J-229-OUT	CURVE_27	ON	0.000000	0.000000
;   Wet Well Pump
PMP2-230	WW-230	J-230-OUT	CURVE_18	ON	0.000000	0.000000
;   Wet Well Pump
PMP2-231	WW-231	J-231-OUT	CURVE_89	ON	0.000000	0.000000
;   Wet Well Pump
PMP2-232	WW-232	J-232-OUT	CURVE_35	ON	0.000000	0.000000
;   Wet Well Pump
PMP2-242	WW-242	J-242-OUT	CURVE_99	ON	0.000000	0.000000
;   Wet Well Pump
PMP2-243	WW-243	J-243-OUT	CURVE_116	ON	0.000000	0.000000
;   Wet Well Pump
PMP2-246	WW-246	J-246-OUT	CURVE_37	ON	0.000000	0.000000
;   Wet Well Pump
PMP2-247	WW-247	J-247-OUT	CURVE_107	ON	0.000000	0.000000
;   Wet Well Pump
PMP2-250	WW-250	J-250-OUT	CURVE_95	ON	0.000000	0.000000
;   Wet Well Pump
PMP2-251	WW-251	J-251-OUT	CURVE_77	ON	0.000000	0.000000
;   Wet Well Pump
PMP2-258	WW-258	J-258-OUT	CURVE_123	ON	0.000000	0.000000

[ORIFICES]

[WEIRS]

[XSECTIONS]
FM-824_1	CIRCULAR	0.500000	0.000000	0.000000	0.000000	1	0
FM-824_10	CIRCULAR	0.500000	0.000000	0.000000	0.000000	1	0
FM-824_2	CIRCULAR	0.330000	0.000000	0.000000	0.000000	1	0
FM-824_20	CIRCULAR	0.330000	0.000000	0.000000	0.000000	1	0
FM-824_21	CIRCULAR	0.330000	0.000000	0.000000	0.000000	1	0
FM-824_22	CIRCULAR	0.330000	0.000000	0.000000	0.000000	1	0
FM-824_25	CIRCULAR	0.330000	0.000000	0.000000	0.000000	1	0
FM-824_26	CIRCULAR	0.330000	0.000000	0.000000	0.000000	1	0
FM-824_8	CIRCULAR	0.250000	0.000000	0.000000	0.000000	1	0
FM-825_10	CIRCULAR	0.170000	0.000000	0.000000	0.000000	1	0
FM-825_6	CIRCULAR	0.170000	0.000000	0.000000	0.000000	1	0
FM-825_7	CIRCULAR	0.330000	0.000000	0.000000	0.000000	1	0
FM-919_22	CIRCULAR	0.670000	0.000000	0.000000	0.000000	1	0
FM-919_26	CIRCULAR	0.500000	0.000000	0.000000	0.000000	1	0
FM-919_3	CIRCULAR	0.330000	0.000000	0.000000	0.000000	1	0
FM-919_9	CIRCULAR	0.670000	0.000000	0.000000	0.000000	1	0
FM-920_1	CIRCULAR	0.670000	0.000000	0.000000	0.000000	1	0
FM-920_12	CIRCULAR	0.670000	0.000000	0.000000	0.000000	1	0
FM-920_23	CIRCULAR	0.330000	0.000000	0.000000	0.000000	1	0
FM-929_19	CIRCULAR	0.670000	0.000000	0.000000	0.000000	1	0
FM-929_40	CIRCULAR	0.330000	0.000000	0.000000	0.000000	1	0
FM-929_43	CIRCULAR	0.330000	0.000000	0.000000	0.000000	1	0
FM-929_5	CIRCULAR	0.330000	0.000000	0.000000	0.000000	1	0
FM-930_16	CIRCULAR	0.670000	0.000000	0.000000	0.000000	1	0
FM-930_19	CIRCULAR	0.670000	0.000000	0.000000	0.000000	1	0
FM-930_24	CIRCULAR	0.830000	0.000000	0.000000	0.000000	1	0
FM-930_28	CIRCULAR	0.830000	0.000000	0.000000	0.000000	1	0
FM-930_38	CIRCULAR	1.000000	0.000000	0.000000	0.000000	1	0
FM-LS1002	CIRCULAR	0.330000	0.000000	0.000000	0.000000	1	0
FM-LS1003	CIRCULAR	0.170000	0.000000	0.000000	0.000000	1	0
FM-LS147	CIRCULAR	0.500000	0.000000	0.000000	0.000000	1	0
FM-LS220	CIRCULAR	0.670000	0.000000	0.000000	0.000000	1	0
FM-LS221	CIRCULAR	0.670000	0.000000	0.000000	0.000000	1	0
FM-LS222	CIRCULAR	0.330000	0.000000	0.000000	0.000000	1	0
FM-LS223	CIRCULAR	0.330000	0.000000	0.000000	0.000000	1	0
FM-LS224	CIRCULAR	0.500000	0.000000	0.000000	0.000000	1	0
FM-LS225	CIRCULAR	0.670000	0.000000	0.000000	0.000000	1	0
FM-LS226	CIRCULAR	1.000000	0.000000	0.000000	0.000000	1	0
FM-LS227	CIRCULAR	0.330000	0.000000	0.000000	0.000000	1	0
FM-LS228	CIRCULAR	0.330000	0.000000	0.000000	0.000000	1	0
FM-LS229	CIRCULAR	0.330000	0.000000	0.000000	0.000000	1	0
FM-LS230	CIRCULAR	0.670000	0.000000	0.000000	0.000000	1	0
FM-LS231	CIRCULAR	0.330000	0.000000	0.000000	0.000000	1	0
FM-LS232	CIRCULAR	0.330000	0.000000	0.000000	0.000000	1	0
FM-LS242	CIRCULAR	0.330000	0.000000	0.000000	0.000000	1	0
FM-LS243	CIRCULAR	0.330000	0.000000	0.000000	0.000000	1	0
FM-LS246	CIRCULAR	0.330000	0.000000	0.000000	0.000000	1	0
FM-LS247	CIRCULAR	0.170000	0.000000	0.000000	0.000000	1	0
FM-LS250	CIRCULAR	0.250000	0.000000	0.000000	0.000000	1	0
FM-LS251	CIRCULAR	0.330000	0.000000	0.000000	0.000000	1	0
FM-LS258	CIRCULAR	0.170000	0.000000	0.000000	0.000000	1	0
GM-813_1	CIRCULAR	0.670000	0.000000	0.000000	0.000000	1	0
GM-813_2	CIRCULAR	0.670000	0.000000	0.000000	0.000000	1	0
GM-813_3	CIRCULAR	0.670000	0.000000	0.000000	0.000000	1	0
GM-824_1	CIRCULAR	0.670000	0.000000	0.000000	0.000000	1	0
GM-824_10	CIRCULAR	0.670000	0.000000	0.000000	0.000000	1	0
GM-824_100	CIRCULAR	0.670000	0.000000	0.000000	0.000000	1	0
GM-824_101	CIRCULAR	0.670000	0.000000	0.000000	0.000000	1	0
GM-824_102	CIRCULAR	0.670000	0.000000	0.000000	0.000000	1	0
GM-824_103	CIRCULAR	0.670000	0.000000	0.000000	0.000000	1	0
GM-824_104	CIRCULAR	0.670000	0.000000	0.000000	0.000000	1	0
GM-824_105	CIRCULAR	0.670000	0.000000	0.000000	0.000000	1	0
GM-824_106	CIRCULAR	0.670000	0.000000	0.000000	0.000000	1	0
GM-824_107	CIRCULAR	0.670000	0.000000	0.000000	0.000000	1	0
GM-824_108	CIRCULAR	0.670000	0.000000	0.000000	0.000000	1	0
GM-824_109	CIRCULAR	0.670000	0.000000	0.000000	0.000000	1	0
GM-824_11	CIRCULAR	0.670000	0.000000	0.000000	0.000000	1	0
GM-824_110	CIRCULAR	0.670000	0.000000	0.000000	0.000000	1	0
GM-824_111	CIRCULAR	0.670000	0.000000	0.000000	0.000000	1	0
GM-824_112	CIRCULAR	0.670000	0.000000	0.000000	0.000000	1	0
GM-824_113	CIRCULAR	0.670000	0.000000	0.000000	0.000000	1	0
GM-824_114	CIRCULAR	0.670000	0.000000	0.000000	0.000000	1	0
GM-824_115	CIRCULAR	0.670000	0.000000	0.000000	0.000000	1	0
GM-824_116	CIRCULAR	0.670000	0.000000	0.000000	0.000000	1	0
GM-824_117	CIRCULAR	0.670000	0.000000	0.000000	0.000000	1	0
GM-824_118	CIRCULAR	0.670000	0.000000	0.000000	0.000000	1	0
GM-824_119	CIRCULAR	0.670000	0.000000	0.000000	0.000000	1	0
GM-824_12	CIRCULAR	0.670000	0.000000	0.000000	0.000000	1	0
GM-824_120	CIRCULAR	0.670000	0.000000	0.000000	0.000000	1	0
GM-824_121	CIRCULAR	0.670000	0.000000	0.000000	0.000000	1	0
GM-824_122	CIRCULAR	0.670000	0.000000	0.000000	0.000000	1	0
GM-824_123	CIRCULAR	0.670000	0.000000	0.000000	0.000000	1	0
GM-824_124	CIRCULAR	0.670000	0.000000	0.000000	0.000000	1	0
GM-824_125	CIRCULAR	0.670000	0.000000	0.000000	0.000000	1	0
GM-824_126	CIRCULAR	0.670000	0.000000	0.000000	0.000000	1	0
GM-824_127	CIRCULAR	0.670000	0.000000	0.000000	0.000000	1	0
GM-824_128	CIRCULAR	0.670000	0.000000	0.000000	0.000000	1	0
GM-824_129	CIRCULAR	0.670000	0.000000	0.000000	0.000000	1	0
GM-824_13	CIRCULAR	0.670000	0.000000	0.000000	0.000000	1	0
GM-824_130	CIRCULAR	0.670000	0.000000	0.000000	0.000000	1	0
GM-824_131	CIRCULAR	0.670000	0.000000	0.000000	0.000000	1	0
GM-824_132	CIRCULAR	0.670000	0.000000	0.000000	0.000000	1	0
GM-824_133	CIRCULAR	0.670000	0.000000	0.000000	0.000000	1	0
GM-824_134	CIRCULAR	0.670000	0.000000	0.000000	0.000000	1	0
GM-824_135	CIRCULAR	0.670000	0.000000	0.000000	0.000000	1	0
GM-824_136	CIRCULAR	0.670000	0.000000	0.000000	0.000000	1	0
GM-824_137	CIRCULAR	0.670000	0.000000	0.000000	0.000000	1	0
GM-824_138	CIRCULAR	0.670000	0.000000	0.000000	0.000000	1	0
GM-824_139	CIRCULAR	0.670000	0.000000	0.000000	0.000000	1	0
GM-824_14	CIRCULAR	0.670000	0.000000	0.000000	0.000000	1	0
GM-824_140	CIRCULAR	0.670000	0.000000	0.000000	0.000000	1	0
GM-824_141	CIRCULAR	0.670000	0.000000	0.000000	0.000000	1	0
GM-824_142	CIRCULAR	0.670000	0.000000	0.000000	0.000000	1	0
GM-824_143	CIRCULAR	0.670000	0.000000	0.000000	0.000000	1	0
GM-824_144	CIRCULAR	0.670000	0.000000	0.000000	0.000000	1	0
GM-824_145	CIRCULAR	0.670000	0.000000	0.000000	0.000000	1	0
GM-824_146	CIRCULAR	0.670000	0.000000	0.000000	0.000000	1	0
GM-824_147	CIRCULAR	0.670000	0.000000	0.000000	0.000000	1	0
GM-824_148	CIRCULAR	0.670000	0.000000	0.000000	0.000000	1	0
GM-824_149	CIRCULAR	0.670000	0.000000	0.000000	0.000000	1	0
GM-824_15	CIRCULAR	0.670000	0.000000	0.000000	0.000000	1	0
GM-824_150	CIRCULAR	0.670000	0.000000	0.000000	0.000000	1	0
GM-824_151	CIRCULAR	0.670000	0.000000	0.000000	0.000000	1	0
GM-824_152	CIRCULAR	0.670000	0.000000	0.000000	0.000000	1	0
GM-824_153	CIRCULAR	0.670000	0.000000	0.000000	0.000000	1	0
GM-824_154	CIRCULAR	0.670000	0.000000	0.000000	0.000000	1	0
GM-824_155	CIRCULAR	0.670000	0.000000	0.000000	0.000000	1	0
GM-824_156	CIRCULAR	0.670000	0.000000	0.000000	0.000000	1	0
GM-824_157	CIRCULAR	0.670000	0.000000	0.000000	0.000000	1	0
GM-824_158	CIRCULAR	0.670000	0.000000	0.000000	0.000000	1	0
GM-824_159	CIRCULAR	0.670000	0.000000	0.000000	0.000000	1	0
GM-824_16	CIRCULAR	0.670000	0.000000	0.000000	0.000000	1	0
GM-824_160	CIRCULAR	0.670000	0.000000	0.000000	0.000000	1	0
GM-824_161	CIRCULAR	0.670000	0.000000	0.000000	0.000000	1	0
GM-824_162	CIRCULAR	0.670000	0.000000	0.000000	0.000000	1	0
GM-824_163	CIRCULAR	0.670000	0.000000	0.000000	0.000000	1	0
GM-824_164	CIRCULAR	0.670000	0.000000	0.000000	0.000000	1	0
GM-824_17	CIRCULAR	0.670000	0.000000	0.000000	0.000000	1	0
GM-824_18	CIRCULAR	0.670000	0.000000	0.000000	0.000000	1	0
GM-824_19	CIRCULAR	0.670000	0.000000	0.000000	0.000000	1	0
GM-824_2	CIRCULAR	0.670000	0.000000	0.000000	0.000000	1	0
GM-824_20	CIRCULAR	0.670000	0.000000	0.000000	0.000000	1	0
GM-824_21	CIRCULAR	0.670000	0.000000	0.000000	0.000000	1	0
GM-824_22	CIRCULAR	0.670000	0.000000	0.000000	0.000000	1	0
GM-824_23	CIRCULAR	0.670000	0.000000	0.000000	0.000000	1	0
GM-824_24	CIRCULAR	0.670000	0.000000	0.000000	0.000000	1	0
GM-824_25	CIRCULAR	0.830000	0.000000	0.000000	0.000000	1	0
GM-824_26	CIRCULAR	0.670000	0.000000	0.000000	0.000000	1	0
GM-824_27	CIRCULAR	0.670000	0.000000	0.000000	0.000000	1	0
GM-824_28	CIRCULAR	0.670000	0.000000	0.000000	0.000000	1	0
GM-824_29	CIRCULAR	0.670000	0.000000	0.000000	0.000000	1	0
GM-824_3	CIRCULAR	0.670000	0.000000	0.000000	0.000000	1	0
GM-824_30	CIRCULAR	0.670000	0.000000	0.000000	0.000000	1	0
GM-824_31	CIRCULAR	0.670000	0.000000	0.000000	0.000000	1	0
GM-824_32	CIRCULAR	0.670000	0.000000	0.000000	0.000000	1	0
GM-824_33	CIRCULAR	0.670000	0.000000	0.000000	0.000000	1	0
GM-824_34	CIRCULAR	0.670000	0.000000	0.000000	0.000000	1	0
GM-824_35	CIRCULAR	0.670000	0.000000	0.000000	0.000000	1	0
GM-824_36	CIRCULAR	0.670000	0.000000	0.000000	0.000000	1	0
GM-824_37	CIRCULAR	0.670000	0.000000	0.000000	0.000000	1	0
GM-824_38	CIRCULAR	0.670000	0.000000	0.000000	0.000000	1	0
GM-824_39	CIRCULAR	0.670000	0.000000	0.000000	0.000000	1	0
GM-824_4	CIRCULAR	0.670000	0.000000	0.000000	0.000000	1	0
GM-824_40	CIRCULAR	0.670000	0.000000	0.000000	0.000000	1	0
GM-824_41	CIRCULAR	0.670000	0.000000	0.000000	0.000000	1	0
GM-824_42	CIRCULAR	0.670000	0.000000	0.000000	0.000000	1	0
GM-824_43	CIRCULAR	0.670000	0.000000	0.000000	0.000000	1	0
GM-824_44	CIRCULAR	0.670000	0.000000	0.000000	0.000000	1	0
GM-824_45	CIRCULAR	0.670000	0.000000	0.000000	0.000000	1	0
GM-824_46	CIRCULAR	0.670000	0.000000	0.000000	0.000000	1	0
GM-824_47	CIRCULAR	0.670000	0.000000	0.000000	0.000000	1	0
GM-824_48	CIRCULAR	0.670000	0.000000	0.000000	0.000000	1	0
GM-824_49	CIRCULAR	0.670000	0.000000	0.000000	0.000000	1	0
GM-824_5	CIRCULAR	0.670000	0.000000	0.000000	0.000000	1	0
GM-824_50	CIRCULAR	0.670000	0.000000	0.000000	0.000000	1	0
GM-824_51	CIRCULAR	0.670000	0.000000	0.000000	0.000000	1	0
GM-824_52	CIRCULAR	0.670000	0.000000	0.000000	0.000000	1	0
GM-824_53	CIRCULAR	0.670000	0.000000	0.000000	0.000000	1	0
GM-824_54	CIRCULAR	0.670000	0.000000	0.000000	0.000000	1	0
GM-824_55	CIRCULAR	0.670000	0.000000	0.000000	0.000000	1	0
GM-824_56	CIRCULAR	0.670000	0.000000	0.000000	0.000000	1	0
GM-824_57	CIRCULAR	0.670000	0.000000	0.000000	0.000000	1	0
GM-824_58	CIRCULAR	0.670000	0.000000	0.000000	0.000000	1	0
GM-824_59	CIRCULAR	0.670000	0.000000	0.000000	0.000000	1	0
GM-824_6	CIRCULAR	0.670000	0.000000	0.000000	0.000000	1	0
GM-824_60	CIRCULAR	0.670000	0.000000	0.000000	0.000000	1	0
GM-824_61	CIRCULAR	0.670000	0.000000	0.000000	0.000000	1	0
GM-824_62	CIRCULAR	0.670000	0.000000	0.000000	0.000000	1	0
GM-824_63	CIRCULAR	0.670000	0.000000	0.000000	0.000000	1	0
GM-824_64	CIRCULAR	0.670000	0.000000	0.000000	0.000000	1	0
GM-824_65	CIRCULAR	0.670000	0.000000	0.000000	0.000000	1	0
GM-824_66	CIRCULAR	0.670000	0.000000	0.000000	0.000000	1	0
GM-824_67	CIRCULAR	0.670000	0.000000	0.000000	0.000000	1	0
GM-824_68	CIRCULAR	0.670000	0.000000	0.000000	0.000000	1	0
GM-824_69	CIRCULAR	0.670000	0.000000	0.000000	0.000000	1	0
GM-824_7	CIRCULAR	0.670000	0.000000	0.000000	0.000000	1	0
GM-824_70	CIRCULAR	0.670000	0.000000	0.000000	0.000000	1	0
GM-824_71	CIRCULAR	0.670000	0.000000	0.000000	0.000000	1	0
GM-824_72	CIRCULAR	0.670000	0.000000	0.000000	0.000000	1	0
GM-824_73	CIRCULAR	0.670000	0.000000	0.000000	0.000000	1	0
GM-824_74	CIRCULAR	0.670000	0.000000	0.000000	0.000000	1	0
GM-824_75	CIRCULAR	0.670000	0.000000	0.000000	0.000000	1	0
GM-824_76	CIRCULAR	0.670000	0.000000	0.000000	0.000000	1	0
GM-824_77	CIRCULAR	0.670000	0.000000	0.000000	0.000000	1	0
GM-824_78	CIRCULAR	0.670000	0.000000	0.000000	0.000000	1	0
GM-824_79	CIRCULAR	0.670000	0.000000	0.000000	0.000000	1	0
GM-824_8	CIRCULAR	0.670000	0.000000	0.000000	0.000000	1	0
GM-824_80	CIRCULAR	0.670000	0.000000	0.000000	0.000000	1	0
GM-824_81	CIRCULAR	0.670000	0.000000	0.000000	0.000000	1	0
GM-824_82	CIRCULAR	0.670000	0.000000	0.000000	0.000000	1	0
GM-824_83	CIRCULAR	0.670000	0.000000	0.000000	0.000000	1	0
GM-824_84	CIRCULAR	0.670000	0.000000	0.000000	0.000000	1	0
GM-824_85	CIRCULAR	0.670000	0.000000	0.000000	0.000000	1	0
GM-824_86	CIRCULAR	0.670000	0.000000	0.000000	0.000000	1	0
GM-824_87	CIRCULAR	0.670000	0.000000	0.000000	0.000000	1	0
GM-824_88	CIRCULAR	0.670000	0.000000	0.000000	0.000000	1	0
GM-824_89	CIRCULAR	0.670000	0.000000	0.000000	0.000000	1	0
GM-824_9	CIRCULAR	0.670000	0.000000	0.000000	0.000000	1	0
GM-824_90	CIRCULAR	0.670000	0.000000	0.000000	0.000000	1	0
GM-824_91	CIRCULAR	0.670000	0.000000	0.000000	0.000000	1	0
GM-824_92	CIRCULAR	0.670000	0.000000	0.000000	0.000000	1	0
GM-824_93	CIRCULAR	0.670000	0.000000	0.000000	0.000000	1	0
GM-824_94	CIRCULAR	0.670000	0.000000	0.000000	0.000000	1	0
GM-824_95	CIRCULAR	0.670000	0.000000	0.000000	0.000000	1	0
GM-824_96	CIRCULAR	0.670000	0.000000	0.000000	0.000000	1	0
GM-824_97	CIRCULAR	0.670000	0.000000	0.000000	0.000000	1	0
GM-824_98	CIRCULAR	0.670000	0.000000	0.000000	0.000000	1	0
GM-824_99	CIRCULAR	0.670000	0.000000	0.000000	0.000000	1	0
GM-825_10	CIRCULAR	0.670000	0.000000	0.000000	0.000000	1	0
GM-825_11	CIRCULAR	0.670000	0.000000	0.000000	0.000000	1	0
GM-825_12	CIRCULAR	0.670000	0.000000	0.000000	0.000000	1	0
GM-825_13	CIRCULAR	0.670000	0.000000	0.000000	0.000000	1	0
GM-825_14	CIRCULAR	0.670000	0.000000	0.000000	0.000000	1	0
GM-825_2	CIRCULAR	0.670000	0.000000	0.000000	0.000000	1	0
GM-825_3	CIRCULAR	0.670000	0.000000	0.000000	0.000000	1	0
GM-825_4	CIRCULAR	0.670000	0.000000	0.000000	0.000000	1	0
GM-825_5	CIRCULAR	0.670000	0.000000	0.000000	0.000000	1	0
GM-825_6	CIRCULAR	0.670000	0.000000	0.000000	0.000000	1	0
GM-825_7	CIRCULAR	0.670000	0.000000	0.000000	0.000000	1	0
GM-825_8	CIRCULAR	0.670000	0.000000	0.000000	0.000000	1	0
GM-825_9	CIRCULAR	0.670000	0.000000	0.000000	0.000000	1	0
GM-919_1	CIRCULAR	0.670000	0.000000	0.000000	0.000000	1	0
GM-919_10	CIRCULAR	0.670000	0.000000	0.000000	0.000000	1	0
GM-919_100	CIRCULAR	0.670000	0.000000	0.000000	0.000000	1	0
GM-919_101	CIRCULAR	0.670000	0.000000	0.000000	0.000000	1	0
GM-919_102	CIRCULAR	0.670000	0.000000	0.000000	0.000000	1	0
GM-919_103	CIRCULAR	0.670000	0.000000	0.000000	0.000000	1	0
GM-919_104	CIRCULAR	0.670000	0.000000	0.000000	0.000000	1	0
GM-919_105	CIRCULAR	0.830000	0.000000	0.000000	0.000000	1	0
GM-919_106	CIRCULAR	0.670000	0.000000	0.000000	0.000000	1	0
GM-919_107	CIRCULAR	0.670000	0.000000	0.000000	0.000000	1	0
GM-919_108	CIRCULAR	0.670000	0.000000	0.000000	0.000000	1	0
GM-919_109	CIRCULAR	0.670000	0.000000	0.000000	0.000000	1	0
GM-919_11	CIRCULAR	0.670000	0.000000	0.000000	0.000000	1	0
GM-919_110	CIRCULAR	0.670000	0.000000	0.000000	0.000000	1	0
GM-919_111	CIRCULAR	0.670000	0.000000	0.000000	0.000000	1	0
GM-919_112	CIRCULAR	0.670000	0.000000	0.000000	0.000000	1	0
GM-919_113	CIRCULAR	0.670000	0.000000	0.000000	0.000000	1	0
GM-919_114	CIRCULAR	0.670000	0.000000	0.000000	0.000000	1	0
GM-919_115	CIRCULAR	0.670000	0.000000	0.000000	0.000000	1	0
GM-919_116	CIRCULAR	0.670000	0.000000	0.000000	0.000000	1	0
GM-919_117	CIRCULAR	0.670000	0.000000	0.000000	0.000000	1	0
GM-919_118	CIRCULAR	0.670000	0.000000	0.000000	0.000000	1	0
GM-919_119	CIRCULAR	0.670000	0.000000	0.000000	0.000000	1	0
GM-919_12	CIRCULAR	0.670000	0.000000	0.000000	0.000000	1	0
GM-919_120	CIRCULAR	0.830000	0.000000	0.000000	0.000000	1	0
GM-919_121	CIRCULAR	0.830000	0.000000	0.000000	0.000000	1	0
GM-919_122	CIRCULAR	0.830000	0.000000	0.000000	0.000000	1	0
GM-919_123	CIRCULAR	1.500000	0.000000	0.000000	0.000000	1	0
GM-919_124	CIRCULAR	0.830000	0.000000	0.000000	0.000000	1	0
GM-919_125	CIRCULAR	0.830000	0.000000	0.000000	0.000000	1	0
GM-919_126	CIRCULAR	0.830000	0.000000	0.000000	0.000000	1	0
GM-919_127	CIRCULAR	0.670000	0.000000	0.000000	0.000000	1	0
GM-919_128	CIRCULAR	0.670000	0.000000	0.000000	0.000000	1	0
GM-919_129	CIRCULAR	0.670000	0.000000	0.000000	0.000000	1	0
GM-919_13	CIRCULAR	0.670000	0.000000	0.000000	0.000000	1	0
GM-919_130	CIRCULAR	0.670000	0.000000	0.000000	0.000000	1	0
GM-919_131	CIRCULAR	0.830000	0.000000	0.000000	0.000000	1	0
GM-919_132	CIRCULAR	0.670000	0.000000	0.000000	0.000000	1	0
GM-919_133	CIRCULAR	0.670000	0.000000	0.000000	0.000000	1	0
GM-919_134	CIRCULAR	0.670000	0.000000	0.000000	0.000000	1	0
GM-919_135	CIRCULAR	0.670000	0.000000	0.000000	0.000000	1	0
GM-919_136	CIRCULAR	0.670000	0.000000	0.000000	0.000000	1	0
GM-919_137	CIRCULAR	0.670000	0.000000	0.000000	0.000000	1	0
GM-919_138	CIRCULAR	0.670000	0.000000	0.000000	0.000000	1	0
GM-919_139	CIRCULAR	0.670000	0.000000	0.000000	0.000000	1	0
GM-919_14	CIRCULAR	0.670000	0.000000	0.000000	0.000000	1	0
GM-919_140	CIRCULAR	0.670000	0.000000	0.000000	0.000000	1	0
GM-919_141	CIRCULAR	0.670000	0.000000	0.000000	0.000000	1	0
GM-919_142	CIRCULAR	0.670000	0.000000	0.000000	0.000000	1	0
GM-919_143	CIRCULAR	0.670000	0.000000	0.000000	0.000000	1	0
GM-919_144	CIRCULAR	0.500000	0.000000	0.000000	0.000000	1	0
GM-919_145	CIRCULAR	0.670000	0.000000	0.000000	0.000000	1	0
GM-919_146	CIRCULAR	0.670000	0.000000	0.000000	0.000000	1	0
GM-919_147	CIRCULAR	0.670000	0.000000	0.000000	0.000000	1	0
GM-919_148	CIRCULAR	0.670000	0.000000	0.000000	0.000000	1	0
GM-919_149	CIRCULAR	0.670000	0.000000	0.000000	0.000000	1	0
GM-919_15	CIRCULAR	0.670000	0.000000	0.000000	0.000000	1	0
GM-919_150	CIRCULAR	0.670000	0.000000	0.000000	0.000000	1	0
GM-919_151	CIRCULAR	0.670000	0.000000	0.000000	0.000000	1	0
GM-919_152	CIRCULAR	0.500000	0.000000	0.000000	0.000000	1	0
GM-919_153	CIRCULAR	0.670000	0.000000	0.000000	0.000000	1	0
GM-919_154	CIRCULAR	0.670000	0.000000	0.000000	0.000000	1	0
GM-919_155	CIRCULAR	0.670000	0.000000	0.000000	0.000000	1	0
GM-919_156	CIRCULAR	0.670000	0.000000	0.000000	0.000000	1	0
GM-919_157	CIRCULAR	0.670000	0.000000	0.000000	0.000000	1	0
GM-919_158	CIRCULAR	0.670000	0.000000	0.000000	0.000000	1	0
GM-919_159	CIRCULAR	0.670000	0.000000	0.000000	0.000000	1	0
GM-919_16	CIRCULAR	0.670000	0.000000	0.000000	0.000000	1	0
GM-919_160	CIRCULAR	0.670000	0.000000	0.000000	0.000000	1	0
GM-919_161	CIRCULAR	0.670000	0.000000	0.000000	0.000000	1	0
GM-919_162	CIRCULAR	0.670000	0.000000	0.000000	0.000000	1	0
GM-919_163	CIRCULAR	0.670000	0.000000	0.000000	0.000000	1	0
GM-919_164	CIRCULAR	0.500000	0.000000	0.000000	0.000000	1	0
GM-919_165	CIRCULAR	0.670000	0.000000	0.000000	0.000000	1	0
GM-919_166	CIRCULAR	0.670000	0.000000	0.000000	0.000000	1	0
GM-919_167	CIRCULAR	0.670000	0.000000	0.000000	0.000000	1	0
GM-919_168	CIRCULAR	0.500000	0.000000	0.000000	0.000000	1	0
GM-919_169	CIRCULAR	0.670000	0.000000	0.000000	0.000000	1	0
GM-919_17	CIRCULAR	0.670000	0.000000	0.000000	0.000000	1	0
GM-919_170	CIRCULAR	0.670000	0.000000	0.000000	0.000000	1	0
GM-919_171	CIRCULAR	0.670000	0.000000	0.000000	0.000000	1	0
GM-919_172	CIRCULAR	0.670000	0.000000	0.000000	0.000000	1	0
GM-919_173	CIRCULAR	0.670000	0.000000	0.000000	0.000000	1	0
GM-919_174	CIRCULAR	0.670000	0.000000	0.000000	0.000000	1	0
GM-919_175	CIRCULAR	0.670000	0.000000	0.000000	0.000000	1	0
GM-919_176	CIRCULAR	0.670000	0.000000	0.000000	0.000000	1	0
GM-919_177	CIRCULAR	0.670000	0.000000	0.000000	0.000000	1	0
GM-919_178	CIRCULAR	0.670000	0.000000	0.000000	0.000000	1	0
GM-919_179	CIRCULAR	0.670000	0.000000	0.000000	0.000000	1	0
GM-919_18	CIRCULAR	0.670000	0.000000	0.000000	0.000000	1	0
GM-919_180	CIRCULAR	0.670000	0.000000	0.000000	0.000000	1	0
GM-919_181	CIRCULAR	0.670000	0.000000	0.000000	0.000000	1	0
GM-919_182	CIRCULAR	0.670000	0.000000	0.000000	0.000000	1	0
GM-919_183	CIRCULAR	0.500000	0.000000	0.000000	0.000000	1	0
GM-919_184	CIRCULAR	0.670000	0.000000	0.000000	0.000000	1	0
GM-919_185	CIRCULAR	0.670000	0.000000	0.000000	0.000000	1	0
GM-919_186	CIRCULAR	0.670000	0.000000	0.000000	0.000000	1	0
GM-919_187	CIRCULAR	0.670000	0.000000	0.000000	0.000000	1	0
GM-919_188	CIRCULAR	0.670000	0.000000	0.000000	0.000000	1	0
GM-919_189	CIRCULAR	0.670000	0.000000	0.000000	0.000000	1	0
GM-919_19	CIRCULAR	0.670000	0.000000	0.000000	0.000000	1	0
GM-919_190	CIRCULAR	0.500000	0.000000	0.000000	0.000000	1	0
GM-919_191	CIRCULAR	0.670000	0.000000	0.000000	0.000000	1	0
GM-919_192	CIRCULAR	0.670000	0.000000	0.000000	0.000000	1	0
GM-919_193	CIRCULAR	0.670000	0.000000	0.000000	0.000000	1	0
GM-919_194	CIRCULAR	0.670000	0.000000	0.000000	0.000000	1	0
GM-919_195	CIRCULAR	0.670000	0.000000	0.000000	0.000000	1	0
GM-919_196	CIRCULAR	0.670000	0.000000	0.000000	0.000000	1	0
GM-919_197	CIRCULAR	0.670000	0.000000	0.000000	0.000000	1	0
GM-919_198	CIRCULAR	0.670000	0.000000	0.000000	0.000000	1	0
GM-919_199	CIRCULAR	0.670000	0.000000	0.000000	0.000000	1	0
GM-919_2	CIRCULAR	0.670000	0.000000	0.000000	0.000000	1	0
GM-919_20	CIRCULAR	0.670000	0.000000	0.000000	0.000000	1	0
GM-919_200	CIRCULAR	0.830000	0.000000	0.000000	0.000000	1	0
GM-919_201	CIRCULAR	0.830000	0.000000	0.000000	0.000000	1	0
GM-919_202	CIRCULAR	0.830000	0.000000	0.000000	0.000000	1	0
GM-919_203	CIRCULAR	0.830000	0.000000	0.000000	0.000000	1	0
GM-919_204	CIRCULAR	0.670000	0.000000	0.000000	0.000000	1	0
GM-919_205	CIRCULAR	0.670000	0.000000	0.000000	0.000000	1	0
GM-919_206	CIRCULAR	0.670000	0.000000	0.000000	0.000000	1	0
GM-919_207	CIRCULAR	0.670000	0.000000	0.000000	0.000000	1	0
GM-919_208	CIRCULAR	0.670000	0.000000	0.000000	0.000000	1	0
GM-919_209	CIRCULAR	0.670000	0.000000	0.000000	0.000000	1	0
GM-919_21	CIRCULAR	0.670000	0.000000	0.000000	0.000000	1	0
GM-919_210	CIRCULAR	0.670000	0.000000	0.000000	0.000000	1	0
GM-919_211	CIRCULAR	0.670000	0.000000	0.000000	0.000000	1	0
GM-919_212	CIRCULAR	0.670000	0.000000	0.000000	0.000000	1	0
GM-919_213	CIRCULAR	0.670000	0.000000	0.000000	0.000000	1	0
GM-919_214	CIRCULAR	0.670000	0.000000	0.000000	0.000000	1	0
GM-919_215	CIRCULAR	0.670000	0.000000	0.000000	0.000000	1	0
GM-919_216	CIRCULAR	0.670000	0.000000	0.000000	0.000000	1	0
GM-919_217	CIRCULAR	0.670000	0.000000	0.000000	0.000000	1	0
GM-919_218	CIRCULAR	0.670000	0.000000	0.000000	0.000000	1	0
GM-919_219	CIRCULAR	0.670000	0.000000	0.000000	0.000000	1	0
GM-919_22	CIRCULAR	0.670000	0.000000	0.000000	0.000000	1	0
GM-919_220	CIRCULAR	0.670000	0.000000	0.000000	0.000000	1	0
GM-919_221	CIRCULAR	1.000000	0.000000	0.000000	0.000000	1	0
GM-919_222	CIRCULAR	0.670000	0.000000	0.000000	0.000000	1	0
GM-919_223	CIRCULAR	0.670000	0.000000	0.000000	0.000000	1	0
GM-919_224	CIRCULAR	0.670000	0.000000	0.000000	0.000000	1	0
GM-919_225	CIRCULAR	0.670000	0.000000	0.000000	0.000000	1	0
GM-919_226	CIRCULAR	0.670000	0.000000	0.000000	0.000000	1	0
GM-919_227	CIRCULAR	0.670000	0.000000	0.000000	0.000000	1	0
GM-919_228	CIRCULAR	1.000000	0.000000	0.000000	0.000000	1	0
GM-919_229	CIRCULAR	0.670000	0.000000	0.000000	0.000000	1	0
GM-919_23	CIRCULAR	0.670000	0.000000	0.000000	0.000000	1	0
GM-919_230	CIRCULAR	0.670000	0.000000	0.000000	0.000000	1	0
GM-919_231	CIRCULAR	0.670000	0.000000	0.000000	0.000000	1	0
GM-919_232	CIRCULAR	0.670000	0.000000	0.000000	0.000000	1	0
GM-919_233	CIRCULAR	0.670000	0.000000	0.000000	0.000000	1	0
GM-919_234	CIRCULAR	0.670000	0.000000	0.000000	0.000000	1	0
GM-919_24	CIRCULAR	0.670000	0.000000	0.000000	0.000000	1	0
GM-919_25	CIRCULAR	0.670000	0.000000	0.000000	0.000000	1	0
GM-919_26	CIRCULAR	0.670000	0.000000	0.000000	0.000000	1	0
GM-919_27	CIRCULAR	0.670000	0.000000	0.000000	0.000000	1	0
GM-919_28	CIRCULAR	0.670000	0.000000	0.000000	0.000000	1	0
GM-919_29	CIRCULAR	0.670000	0.000000	0.000000	0.000000	1	0
GM-919_3	CIRCULAR	0.670000	0.000000	0.000000	0.000000	1	0
GM-919_30	CIRCULAR	0.670000	0.000000	0.000000	0.000000	1	0
GM-919_31	CIRCULAR	0.670000	0.000000	0.000000	0.000000	1	0
GM-919_32	CIRCULAR	0.670000	0.000000	0.000000	0.000000	1	0
GM-919_33	CIRCULAR	0.670000	0.000000	0.000000	0.000000	1	0
GM-919_34	CIRCULAR	0.670000	0.000000	0.000000	0.000000	1	0
GM-919_35	CIRCULAR	0.670000	0.000000	0.000000	0.000000	1	0
GM-919_36	CIRCULAR	0.670000	0.000000	0.000000	0.000000	1	0
GM-919_37	CIRCULAR	0.670000	0.000000	0.000000	0.000000	1	0
GM-919_38	CIRCULAR	0.670000	0.000000	0.000000	0.000000	1	0
GM-919_39	CIRCULAR	0.670000	0.000000	0.000000	0.000000	1	0
GM-919_4	CIRCULAR	0.670000	0.000000	0.000000	0.000000	1	0
GM-919_40	CIRCULAR	0.670000	0.000000	0.000000	0.000000	1	0
GM-919_41	CIRCULAR	0.670000	0.000000	0.000000	0.000000	1	0
GM-919_42	CIRCULAR	0.670000	0.000000	0.000000	0.000000	1	0
GM-919_43	CIRCULAR	0.670000	0.000000	0.000000	0.000000	1	0
GM-919_44	CIRCULAR	0.670000	0.000000	0.000000	0.000000	1	0
GM-919_45	CIRCULAR	0.670000	0.000000	0.000000	0.000000	1	0
GM-919_46	CIRCULAR	0.670000	0.000000	0.000000	0.000000	1	0
GM-919_47	CIRCULAR	0.670000	0.000000	0.000000	0.000000	1	0
GM-919_48	CIRCULAR	0.830000	0.000000	0.000000	0.000000	1	0
GM-919_49	CIRCULAR	0.670000	0.000000	0.000000	0.000000	1	0
GM-919_5	CIRCULAR	0.670000	0.000000	0.000000	0.000000	1	0
GM-919_50	CIRCULAR	0.670000	0.000000	0.000000	0.000000	1	0
GM-919_51	CIRCULAR	0.670000	0.000000	0.000000	0.000000	1	0
GM-919_52	CIRCULAR	0.670000	0.000000	0.000000	0.000000	1	0
GM-919_53	CIRCULAR	0.670000	0.000000	0.000000	0.000000	1	0
GM-919_54	CIRCULAR	0.670000	0.000000	0.000000	0.000000	1	0
GM-919_55	CIRCULAR	0.670000	0.000000	0.000000	0.000000	1	0
GM-919_56	CIRCULAR	0.670000	0.000000	0.000000	0.000000	1	0
GM-919_57	CIRCULAR	0.670000	0.000000	0.000000	0.000000	1	0
GM-919_58	CIRCULAR	0.670000	0.000000	0.000000	0.000000	1	0
GM-919_59	CIRCULAR	0.670000	0.000000	0.000000	0.000000	1	0
GM-919_6	CIRCULAR	0.670000	0.000000	0.000000	0.000000	1	0
GM-919_60	CIRCULAR	0.670000	0.000000	0.000000	0.000000	1	0
GM-919_61	CIRCULAR	0.670000	0.000000	0.000000	0.000000	1	0
GM-919_63	CIRCULAR	0.670000	0.000000	0.000000	0.000000	1	0
GM-919_64	CIRCULAR	0.830000	0.000000	0.000000	0.000000	1	0
GM-919_65	CIRCULAR	0.670000	0.000000	0.000000	0.000000	1	0
GM-919_66	CIRCULAR	0.670000	0.000000	0.000000	0.000000	1	0
GM-919_67	CIRCULAR	0.670000	0.000000	0.000000	0.000000	1	0
GM-919_68	CIRCULAR	0.670000	0.000000	0.000000	0.000000	1	0
GM-919_69	CIRCULAR	0.670000	0.000000	0.000000	0.000000	1	0
GM-919_7	CIRCULAR	0.670000	0.000000	0.000000	0.000000	1	0
GM-919_70	CIRCULAR	0.670000	0.000000	0.000000	0.000000	1	0
GM-919_71	CIRCULAR	0.830000	0.000000	0.000000	0.000000	1	0
GM-919_72	CIRCULAR	0.670000	0.000000	0.000000	0.000000	1	0
GM-919_73	CIRCULAR	0.670000	0.000000	0.000000	0.000000	1	0
GM-919_74	CIRCULAR	0.670000	0.000000	0.000000	0.000000	1	0
GM-919_75	CIRCULAR	1.000000	0.000000	0.000000	0.000000	1	0
GM-919_76	CIRCULAR	0.670000	0.000000	0.000000	0.000000	1	0
GM-919_77	CIRCULAR	0.670000	0.000000	0.000000	0.000000	1	0
GM-919_78	CIRCULAR	0.670000	0.000000	0.000000	0.000000	1	0
GM-919_79	CIRCULAR	0.670000	0.000000	0.000000	0.000000	1	0
GM-919_8	CIRCULAR	0.670000	0.000000	0.000000	0.000000	1	0
GM-919_80	CIRCULAR	0.670000	0.000000	0.000000	0.000000	1	0
GM-919_81	CIRCULAR	0.670000	0.000000	0.000000	0.000000	1	0
GM-919_82	CIRCULAR	0.670000	0.000000	0.000000	0.000000	1	0
GM-919_83	CIRCULAR	0.670000	0.000000	0.000000	0.000000	1	0
GM-919_84	CIRCULAR	0.670000	0.000000	0.000000	0.000000	1	0
GM-919_85	CIRCULAR	0.670000	0.000000	0.000000	0.000000	1	0
GM-919_86	CIRCULAR	0.670000	0.000000	0.000000	0.000000	1	0
GM-919_87	CIRCULAR	0.670000	0.000000	0.000000	0.000000	1	0
GM-919_88	CIRCULAR	0.830000	0.000000	0.000000	0.000000	1	0
GM-919_89	CIRCULAR	0.670000	0.000000	0.000000	0.000000	1	0
GM-919_9	CIRCULAR	0.670000	0.000000	0.000000	0.000000	1	0
GM-919_90	CIRCULAR	0.670000	0.000000	0.000000	0.000000	1	0
GM-919_91	CIRCULAR	0.670000	0.000000	0.000000	0.000000	1	0
GM-919_92	CIRCULAR	0.670000	0.000000	0.000000	0.000000	1	0
GM-919_93	CIRCULAR	0.670000	0.000000	0.000000	0.000000	1	0
GM-919_94	CIRCULAR	0.670000	0.000000	0.000000	0.000000	1	0
GM-919_95	CIRCULAR	0.670000	0.000000	0.000000	0.000000	1	0
GM-919_96	CIRCULAR	0.670000	0.000000	0.000000	0.000000	1	0
GM-919_97	CIRCULAR	0.670000	0.000000	0.000000	0.000000	1	0
GM-919_98	CIRCULAR	0.670000	0.000000	0.000000	0.000000	1	0
GM-919_99	CIRCULAR	0.670000	0.000000	0.000000	0.000000	1	0
GM-920_1	CIRCULAR	0.670000	0.000000	0.000000	0.000000	1	0
GM-920_10	CIRCULAR	0.670000	0.000000	0.000000	0.000000	1	0
GM-920_11	CIRCULAR	0.670000	0.000000	0.000000	0.000000	1	0
GM-920_12	CIRCULAR	0.670000	0.000000	0.000000	0.000000	1	0
GM-920_13	CIRCULAR	0.670000	0.000000	0.000000	0.000000	1	0
GM-920_14	CIRCULAR	0.670000	0.000000	0.000000	0.000000	1	0
GM-920_15	CIRCULAR	0.670000	0.000000	0.000000	0.000000	1	0
GM-920_16	CIRCULAR	0.670000	0.000000	0.000000	0.000000	1	0
GM-920_17	CIRCULAR	0.670000	0.000000	0.000000	0.000000	1	0
GM-920_18	CIRCULAR	0.670000	0.000000	0.000000	0.000000	1	0
GM-920_19	CIRCULAR	0.670000	0.000000	0.000000	0.000000	1	0
GM-920_2	CIRCULAR	0.670000	0.000000	0.000000	0.000000	1	0
GM-920_20	CIRCULAR	0.670000	0.000000	0.000000	0.000000	1	0
GM-920_21	CIRCULAR	0.670000	0.000000	0.000000	0.000000	1	0
GM-920_22	CIRCULAR	0.670000	0.000000	0.000000	0.000000	1	0
GM-920_23	CIRCULAR	0.670000	0.000000	0.000000	0.000000	1	0
GM-920_24	CIRCULAR	0.670000	0.000000	0.000000	0.000000	1	0
GM-920_25	CIRCULAR	0.670000	0.000000	0.000000	0.000000	1	0
GM-920_26	CIRCULAR	0.670000	0.000000	0.000000	0.000000	1	0
GM-920_27	CIRCULAR	0.670000	0.000000	0.000000	0.000000	1	0
GM-920_28	CIRCULAR	0.670000	0.000000	0.000000	0.000000	1	0
GM-920_29	CIRCULAR	0.670000	0.000000	0.000000	0.000000	1	0
GM-920_3	CIRCULAR	0.670000	0.000000	0.000000	0.000000	1	0
GM-920_30	CIRCULAR	0.670000	0.000000	0.000000	0.000000	1	0
GM-920_31	CIRCULAR	0.670000	0.000000	0.000000	0.000000	1	0
GM-920_32	CIRCULAR	0.670000	0.000000	0.000000	0.000000	1	0
GM-920_33	CIRCULAR	0.670000	0.000000	0.000000	0.000000	1	0
GM-920_34	CIRCULAR	0.670000	0.000000	0.000000	0.000000	1	0
GM-920_35	CIRCULAR	0.670000	0.000000	0.000000	0.000000	1	0
GM-920_36	CIRCULAR	0.670000	0.000000	0.000000	0.000000	1	0
GM-920_37	CIRCULAR	0.670000	0.000000	0.000000	0.000000	1	0
GM-920_38	CIRCULAR	0.670000	0.000000	0.000000	0.000000	1	0
GM-920_39	CIRCULAR	0.670000	0.000000	0.000000	0.000000	1	0
GM-920_4	CIRCULAR	0.670000	0.000000	0.000000	0.000000	1	0
GM-920_40	CIRCULAR	0.670000	0.000000	0.000000	0.000000	1	0
GM-920_41	CIRCULAR	0.670000	0.000000	0.000000	0.000000	1	0
GM-920_42	CIRCULAR	0.670000	0.000000	0.000000	0.000000	1	0
GM-920_43	CIRCULAR	0.670000	0.000000	0.000000	0.000000	1	0
GM-920_44	CIRCULAR	0.670000	0.000000	0.000000	0.000000	1	0
GM-920_45	CIRCULAR	0.670000	0.000000	0.000000	0.000000	1	0
GM-920_46	CIRCULAR	0.670000	0.000000	0.000000	0.000000	1	0
GM-920_47	CIRCULAR	0.670000	0.000000	0.000000	0.000000	1	0
GM-920_48	CIRCULAR	1.000000	0.000000	0.000000	0.000000	1	0
GM-920_49	CIRCULAR	1.000000	0.000000	0.000000	0.000000	1	0
GM-920_5	CIRCULAR	0.670000	0.000000	0.000000	0.000000	1	0
GM-920_50	CIRCULAR	0.500000	0.000000	0.000000	0.000000	1	0
GM-920_51	CIRCULAR	0.670000	0.000000	0.000000	0.000000	1	0
GM-920_52	CIRCULAR	0.670000	0.000000	0.000000	0.000000	1	0
GM-920_53	CIRCULAR	1.000000	0.000000	0.000000	0.000000	1	0
GM-920_54	CIRCULAR	0.670000	0.000000	0.000000	0.000000	1	0
GM-920_55	CIRCULAR	1.250000	0.000000	0.000000	0.000000	1	0
GM-920_57	CIRCULAR	0.670000	0.000000	0.000000	0.000000	1	0
GM-920_58	CIRCULAR	0.670000	0.000000	0.000000	0.000000	1	0
GM-920_59	CIRCULAR	0.670000	0.000000	0.000000	0.000000	1	0
GM-920_6	CIRCULAR	0.670000	0.000000	0.000000	0.000000	1	0
GM-920_60	CIRCULAR	0.670000	0.000000	0.000000	0.000000	1	0
GM-920_61	CIRCULAR	0.670000	0.000000	0.000000	0.000000	1	0
GM-920_62	CIRCULAR	0.830000	0.000000	0.000000	0.000000	1	0
GM-920_63	CIRCULAR	0.670000	0.000000	0.000000	0.000000	1	0
GM-920_64	CIRCULAR	0.670000	0.000000	0.000000	0.000000	1	0
GM-920_65	CIRCULAR	0.670000	0.000000	0.000000	0.000000	1	0
GM-920_66	CIRCULAR	0.670000	0.000000	0.000000	0.000000	1	0
GM-920_7	CIRCULAR	0.670000	0.000000	0.000000	0.000000	1	0
GM-920_8	CIRCULAR	0.670000	0.000000	0.000000	0.000000	1	0
GM-920_9	CIRCULAR	0.670000	0.000000	0.000000	0.000000	1	0
GM-928_105	CIRCULAR	0.670000	0.000000	0.000000	0.000000	1	0
GM-928_107	CIRCULAR	0.670000	0.000000	0.000000	0.000000	1	0
GM-928_118	CIRCULAR	0.670000	0.000000	0.000000	0.000000	1	0
GM-928_13	CIRCULAR	0.670000	0.000000	0.000000	0.000000	1	0
GM-928_18	CIRCULAR	0.670000	0.000000	0.000000	0.000000	1	0
GM-928_27	CIRCULAR	0.670000	0.000000	0.000000	0.000000	1	0
GM-928_28	CIRCULAR	0.670000	0.000000	0.000000	0.000000	1	0
GM-928_36	CIRCULAR	0.670000	0.000000	0.000000	0.000000	1	0
GM-928_43	CIRCULAR	0.670000	0.000000	0.000000	0.000000	1	0
GM-928_47	CIRCULAR	0.670000	0.000000	0.000000	0.000000	1	0
GM-928_49	CIRCULAR	0.670000	0.000000	0.000000	0.000000	1	0
GM-928_50	CIRCULAR	0.670000	0.000000	0.000000	0.000000	1	0
GM-928_53	CIRCULAR	0.670000	0.000000	0.000000	0.000000	1	0
GM-928_58	CIRCULAR	0.670000	0.000000	0.000000	0.000000	1	0
GM-928_6	CIRCULAR	0.670000	0.000000	0.000000	0.000000	1	0
GM-928_65	CIRCULAR	0.670000	0.000000	0.000000	0.000000	1	0
GM-928_66	CIRCULAR	0.670000	0.000000	0.000000	0.000000	1	0
GM-928_67	CIRCULAR	0.670000	0.000000	0.000000	0.000000	1	0
GM-928_69	CIRCULAR	0.670000	0.000000	0.000000	0.000000	1	0
GM-928_76	CIRCULAR	0.670000	0.000000	0.000000	0.000000	1	0
GM-928_81	CIRCULAR	0.670000	0.000000	0.000000	0.000000	1	0
GM-928_86	CIRCULAR	0.670000	0.000000	0.000000	0.000000	1	0
GM-928_87	CIRCULAR	0.670000	0.000000	0.000000	0.000000	1	0
GM-928_88	CIRCULAR	0.670000	0.000000	0.000000	0.000000	1	0
GM-928_89	CIRCULAR	0.670000	0.000000	0.000000	0.000000	1	0
GM-928_90	CIRCULAR	0.670000	0.000000	0.000000	0.000000	1	0
GM-928_91	CIRCULAR	0.670000	0.000000	0.000000	0.000000	1	0
GM-928_92	CIRCULAR	0.670000	0.000000	0.000000	0.000000	1	0
GM-928_98	CIRCULAR	0.670000	0.000000	0.000000	0.000000	1	0
GM-929_1	CIRCULAR	0.670000	0.000000	0.000000	0.000000	1	0
GM-929_10	CIRCULAR	1.500000	0.000000	0.000000	0.000000	1	0
GM-929_100	CIRCULAR	0.670000	0.000000	0.000000	0.000000	1	0
GM-929_101	CIRCULAR	0.670000	0.000000	0.000000	0.000000	1	0
GM-929_102	CIRCULAR	0.670000	0.000000	0.000000	0.000000	1	0
GM-929_103	CIRCULAR	0.670000	0.000000	0.000000	0.000000	1	0
GM-929_104	CIRCULAR	0.670000	0.000000	0.000000	0.000000	1	0
GM-929_105	CIRCULAR	0.830000	0.000000	0.000000	0.000000	1	0
GM-929_106	CIRCULAR	0.830000	0.000000	0.000000	0.000000	1	0
GM-929_107	CIRCULAR	0.830000	0.000000	0.000000	0.000000	1	0
GM-929_108	CIRCULAR	0.830000	0.000000	0.000000	0.000000	1	0
GM-929_109	CIRCULAR	0.830000	0.000000	0.000000	0.000000	1	0
GM-929_11	CIRCULAR	1.500000	0.000000	0.000000	0.000000	1	0
GM-929_110	CIRCULAR	0.830000	0.000000	0.000000	0.000000	1	0
GM-929_111	CIRCULAR	0.830000	0.000000	0.000000	0.000000	1	0
GM-929_112	CIRCULAR	1.000000	0.000000	0.000000	0.000000	1	0
GM-929_114	CIRCULAR	0.670000	0.000000	0.000000	0.000000	1	0
GM-929_115	CIRCULAR	0.670000	0.000000	0.000000	0.000000	1	0
GM-929_116	CIRCULAR	0.670000	0.000000	0.000000	0.000000	1	0
GM-929_118	CIRCULAR	0.670000	0.000000	0.000000	0.000000	1	0
GM-929_119	CIRCULAR	0.670000	0.000000	0.000000	0.000000	1	0
GM-929_12	CIRCULAR	0.670000	0.000000	0.000000	0.000000	1	0
GM-929_120	CIRCULAR	0.670000	0.000000	0.000000	0.000000	1	0
GM-929_121	CIRCULAR	0.670000	0.000000	0.000000	0.000000	1	0
GM-929_122	CIRCULAR	0.670000	0.000000	0.000000	0.000000	1	0
GM-929_123	CIRCULAR	0.670000	0.000000	0.000000	0.000000	1	0
GM-929_124	CIRCULAR	0.670000	0.000000	0.000000	0.000000	1	0
GM-929_125	CIRCULAR	0.670000	0.000000	0.000000	0.000000	1	0
GM-929_126	CIRCULAR	0.670000	0.000000	0.000000	0.000000	1	0
GM-929_128	CIRCULAR	0.670000	0.000000	0.000000	0.000000	1	0
GM-929_13	CIRCULAR	0.670000	0.000000	0.000000	0.000000	1	0
GM-929_130	CIRCULAR	0.670000	0.000000	0.000000	0.000000	1	0
GM-929_131	CIRCULAR	0.670000	0.000000	0.000000	0.000000	1	0
GM-929_132	CIRCULAR	0.670000	0.000000	0.000000	0.000000	1	0
GM-929_133	CIRCULAR	0.670000	0.000000	0.000000	0.000000	1	0
GM-929_134	CIRCULAR	0.670000	0.000000	0.000000	0.000000	1	0
GM-929_135	CIRCULAR	0.670000	0.000000	0.000000	0.000000	1	0
GM-929_136	CIRCULAR	0.670000	0.000000	0.000000	0.000000	1	0
GM-929_137	CIRCULAR	0.670000	0.000000	0.000000	0.000000	1	0
GM-929_138	CIRCULAR	0.670000	0.000000	0.000000	0.000000	1	0
GM-929_14	CIRCULAR	0.670000	0.000000	0.000000	0.000000	1	0
GM-929_140	CIRCULAR	0.670000	0.000000	0.000000	0.000000	1	0
GM-929_142	CIRCULAR	0.670000	0.000000	0.000000	0.000000	1	0
GM-929_143	CIRCULAR	0.670000	0.000000	0.000000	0.000000	1	0
GM-929_144	CIRCULAR	0.670000	0.000000	0.000000	0.000000	1	0
GM-929_145	CIRCULAR	0.670000	0.000000	0.000000	0.000000	1	0
GM-929_146	CIRCULAR	0.670000	0.000000	0.000000	0.000000	1	0
GM-929_147	CIRCULAR	0.670000	0.000000	0.000000	0.000000	1	0
GM-929_148	CIRCULAR	0.670000	0.000000	0.000000	0.000000	1	0
GM-929_149	CIRCULAR	0.670000	0.000000	0.000000	0.000000	1	0
GM-929_15	CIRCULAR	1.500000	0.000000	0.000000	0.000000	1	0
GM-929_150	CIRCULAR	0.670000	0.000000	0.000000	0.000000	1	0
GM-929_151	CIRCULAR	0.670000	0.000000	0.000000	0.000000	1	0
GM-929_152	CIRCULAR	0.670000	0.000000	0.000000	0.000000	1	0
GM-929_153	CIRCULAR	0.670000	0.000000	0.000000	0.000000	1	0
GM-929_154	CIRCULAR	0.670000	0.000000	0.000000	0.000000	1	0
GM-929_155	CIRCULAR	0.670000	0.000000	0.000000	0.000000	1	0
GM-929_158	CIRCULAR	0.670000	0.000000	0.000000	0.000000	1	0
GM-929_16	CIRCULAR	1.500000	0.000000	0.000000	0.000000	1	0
GM-929_161	CIRCULAR	0.670000	0.000000	0.000000	0.000000	1	0
GM-929_162	CIRCULAR	0.670000	0.000000	0.000000	0.000000	1	0
GM-929_164	CIRCULAR	0.670000	0.000000	0.000000	0.000000	1	0
GM-929_165	CIRCULAR	0.670000	0.000000	0.000000	0.000000	1	0
GM-929_166	CIRCULAR	0.670000	0.000000	0.000000	0.000000	1	0
GM-929_167	CIRCULAR	0.670000	0.000000	0.000000	0.000000	1	0
GM-929_168	CIRCULAR	0.670000	0.000000	0.000000	0.000000	1	0
GM-929_169	CIRCULAR	0.670000	0.000000	0.000000	0.000000	1	0
GM-929_17	CIRCULAR	0.670000	0.000000	0.000000	0.000000	1	0
GM-929_171	CIRCULAR	0.670000	0.000000	0.000000	0.000000	1	0
GM-929_174	CIRCULAR	0.670000	0.000000	0.000000	0.000000	1	0
GM-929_175	CIRCULAR	0.670000	0.000000	0.000000	0.000000	1	0
GM-929_176	CIRCULAR	0.500000	0.000000	0.000000	0.000000	1	0
GM-929_177	CIRCULAR	0.500000	0.000000	0.000000	0.000000	1	0
GM-929_18	CIRCULAR	0.670000	0.000000	0.000000	0.000000	1	0
GM-929_180	CIRCULAR	0.670000	0.000000	0.000000	0.000000	1	0
GM-929_181	CIRCULAR	0.500000	0.000000	0.000000	0.000000	1	0
GM-929_182	CIRCULAR	0.500000	0.000000	0.000000	0.000000	1	0
GM-929_184	CIRCULAR	0.670000	0.000000	0.000000	0.000000	1	0
GM-929_188	CIRCULAR	0.670000	0.000000	0.000000	0.000000	1	0
GM-929_19	CIRCULAR	0.670000	0.000000	0.000000	0.000000	1	0
GM-929_190	CIRCULAR	0.670000	0.000000	0.000000	0.000000	1	0
GM-929_196	CIRCULAR	0.830000	0.000000	0.000000	0.000000	1	0
GM-929_198	CIRCULAR	0.670000	0.000000	0.000000	0.000000	1	0
GM-929_199	CIRCULAR	0.670000	0.000000	0.000000	0.000000	1	0
GM-929_2	CIRCULAR	0.670000	0.000000	0.000000	0.000000	1	0
GM-929_20	CIRCULAR	0.670000	0.000000	0.000000	0.000000	1	0
GM-929_201	CIRCULAR	0.500000	0.000000	0.000000	0.000000	1	0
GM-929_204	CIRCULAR	0.670000	0.000000	0.000000	0.000000	1	0
GM-929_205	CIRCULAR	0.500000	0.000000	0.000000	0.000000	1	0
GM-929_206	CIRCULAR	0.500000	0.000000	0.000000	0.000000	1	0
GM-929_207	CIRCULAR	0.500000	0.000000	0.000000	0.000000	1	0
GM-929_209	CIRCULAR	0.670000	0.000000	0.000000	0.000000	1	0
GM-929_21	CIRCULAR	0.670000	0.000000	0.000000	0.000000	1	0
GM-929_211	CIRCULAR	0.500000	0.000000	0.000000	0.000000	1	0
GM-929_212	CIRCULAR	0.670000	0.000000	0.000000	0.000000	1	0
GM-929_213	CIRCULAR	0.670000	0.000000	0.000000	0.000000	1	0
GM-929_214	CIRCULAR	0.670000	0.000000	0.000000	0.000000	1	0
GM-929_217	CIRCULAR	0.670000	0.000000	0.000000	0.000000	1	0
GM-929_218	CIRCULAR	0.670000	0.000000	0.000000	0.000000	1	0
GM-929_22	CIRCULAR	0.670000	0.000000	0.000000	0.000000	1	0
GM-929_221	CIRCULAR	0.670000	0.000000	0.000000	0.000000	1	0
GM-929_223	CIRCULAR	0.670000	0.000000	0.000000	0.000000	1	0
GM-929_224	CIRCULAR	0.670000	0.000000	0.000000	0.000000	1	0
GM-929_226	CIRCULAR	0.670000	0.000000	0.000000	0.000000	1	0
GM-929_227	CIRCULAR	0.670000	0.000000	0.000000	0.000000	1	0
GM-929_23	CIRCULAR	0.670000	0.000000	0.000000	0.000000	1	0
GM-929_230	CIRCULAR	0.670000	0.000000	0.000000	0.000000	1	0
GM-929_239	CIRCULAR	0.670000	0.000000	0.000000	0.000000	1	0
GM-929_24	CIRCULAR	0.670000	0.000000	0.000000	0.000000	1	0
GM-929_240	CIRCULAR	0.670000	0.000000	0.000000	0.000000	1	0
GM-929_25	CIRCULAR	0.670000	0.000000	0.000000	0.000000	1	0
GM-929_26	CIRCULAR	1.500000	0.000000	0.000000	0.000000	1	0
GM-929_27	CIRCULAR	0.670000	0.000000	0.000000	0.000000	1	0
GM-929_28	CIRCULAR	0.670000	0.000000	0.000000	0.000000	1	0
GM-929_29	CIRCULAR	0.670000	0.000000	0.000000	0.000000	1	0
GM-929_3	CIRCULAR	0.670000	0.000000	0.000000	0.000000	1	0
GM-929_30	CIRCULAR	0.670000	0.000000	0.000000	0.000000	1	0
GM-929_32	CIRCULAR	0.500000	0.000000	0.000000	0.000000	1	0
GM-929_33	CIRCULAR	0.670000	0.000000	0.000000	0.000000	1	0
GM-929_34	CIRCULAR	0.670000	0.000000	0.000000	0.000000	1	0
GM-929_35	CIRCULAR	0.670000	0.000000	0.000000	0.000000	1	0
GM-929_36	CIRCULAR	1.500000	0.000000	0.000000	0.000000	1	0
GM-929_37	CIRCULAR	0.670000	0.000000	0.000000	0.000000	1	0
GM-929_38	CIRCULAR	0.670000	0.000000	0.000000	0.000000	1	0
GM-929_39	CIRCULAR	0.670000	0.000000	0.000000	0.000000	1	0
GM-929_4	CIRCULAR	0.670000	0.000000	0.000000	0.000000	1	0
GM-929_40	CIRCULAR	0.670000	0.000000	0.000000	0.000000	1	0
GM-929_44	CIRCULAR	0.670000	0.000000	0.000000	0.000000	1	0
GM-929_46	CIRCULAR	0.670000	0.000000	0.000000	0.000000	1	0
GM-929_47	CIRCULAR	0.670000	0.000000	0.000000	0.000000	1	0
GM-929_48	CIRCULAR	0.670000	0.000000	0.000000	0.000000	1	0
GM-929_49	CIRCULAR	0.670000	0.000000	0.000000	0.000000	1	0
GM-929_5	CIRCULAR	1.500000	0.000000	0.000000	0.000000	1	0
GM-929_50	CIRCULAR	0.670000	0.000000	0.000000	0.000000	1	0
GM-929_51	CIRCULAR	1.250000	0.000000	0.000000	0.000000	1	0
GM-929_52	CIRCULAR	1.250000	0.000000	0.000000	0.000000	1	0
GM-929_53	CIRCULAR	1.250000	0.000000	0.000000	0.000000	1	0
GM-929_54	CIRCULAR	1.250000	0.000000	0.000000	0.000000	1	0
GM-929_56	CIRCULAR	0.670000	0.000000	0.000000	0.000000	1	0
GM-929_57	CIRCULAR	0.670000	0.000000	0.000000	0.000000	1	0
GM-929_58	CIRCULAR	0.670000	0.000000	0.000000	0.000000	1	0
GM-929_59	CIRCULAR	0.670000	0.000000	0.000000	0.000000	1	0
GM-929_6	CIRCULAR	1.500000	0.000000	0.000000	0.000000	1	0
GM-929_63	CIRCULAR	0.670000	0.000000	0.000000	0.000000	1	0
GM-929_64	CIRCULAR	0.670000	0.000000	0.000000	0.000000	1	0
GM-929_65	CIRCULAR	0.670000	0.000000	0.000000	0.000000	1	0
GM-929_66	CIRCULAR	0.670000	0.000000	0.000000	0.000000	1	0
GM-929_67	CIRCULAR	0.670000	0.000000	0.000000	0.000000	1	0
GM-929_68	CIRCULAR	0.670000	0.000000	0.000000	0.000000	1	0
GM-929_69	CIRCULAR	0.670000	0.000000	0.000000	0.000000	1	0
GM-929_7	CIRCULAR	1.500000	0.000000	0.000000	0.000000	1	0
GM-929_70	CIRCULAR	0.670000	0.000000	0.000000	0.000000	1	0
GM-929_71	CIRCULAR	0.670000	0.000000	0.000000	0.000000	1	0
GM-929_72	CIRCULAR	0.670000	0.000000	0.000000	0.000000	1	0
GM-929_73	CIRCULAR	0.670000	0.000000	0.000000	0.000000	1	0
GM-929_74	CIRCULAR	0.670000	0.000000	0.000000	0.000000	1	0
GM-929_75	CIRCULAR	0.670000	0.000000	0.000000	0.000000	1	0
GM-929_77	CIRCULAR	0.670000	0.000000	0.000000	0.000000	1	0
GM-929_78	CIRCULAR	0.670000	0.000000	0.000000	0.000000	1	0
GM-929_8	CIRCULAR	0.670000	0.000000	0.000000	0.000000	1	0
GM-929_80	CIRCULAR	0.670000	0.000000	0.000000	0.000000	1	0
GM-929_81	CIRCULAR	0.670000	0.000000	0.000000	0.000000	1	0
GM-929_82	CIRCULAR	0.670000	0.000000	0.000000	0.000000	1	0
GM-929_84	CIRCULAR	0.670000	0.000000	0.000000	0.000000	1	0
GM-929_85	CIRCULAR	0.670000	0.000000	0.000000	0.000000	1	0
GM-929_86	CIRCULAR	0.670000	0.000000	0.000000	0.000000	1	0
GM-929_87	CIRCULAR	0.670000	0.000000	0.000000	0.000000	1	0
GM-929_88	CIRCULAR	0.670000	0.000000	0.000000	0.000000	1	0
GM-929_89	CIRCULAR	0.670000	0.000000	0.000000	0.000000	1	0
GM-929_9	CIRCULAR	1.500000	0.000000	0.000000	0.000000	1	0
GM-929_90	CIRCULAR	0.670000	0.000000	0.000000	0.000000	1	0
GM-929_91	CIRCULAR	0.670000	0.000000	0.000000	0.000000	1	0
GM-929_92	CIRCULAR	0.670000	0.000000	0.000000	0.000000	1	0
GM-929_93	CIRCULAR	0.670000	0.000000	0.000000	0.000000	1	0
GM-929_99	CIRCULAR	0.670000	0.000000	0.000000	0.000000	1	0
GM-930_1	CIRCULAR	0.670000	0.000000	0.000000	0.000000	1	0
GM-930_100	CIRCULAR	0.670000	0.000000	0.000000	0.000000	1	0
GM-930_101	CIRCULAR	0.670000	0.000000	0.000000	0.000000	1	0
GM-930_102	CIRCULAR	0.670000	0.000000	0.000000	0.000000	1	0
GM-930_103	CIRCULAR	0.670000	0.000000	0.000000	0.000000	1	0
GM-930_104	CIRCULAR	0.670000	0.000000	0.000000	0.000000	1	0
GM-930_105	CIRCULAR	0.670000	0.000000	0.000000	0.000000	1	0
GM-930_106	CIRCULAR	0.670000	0.000000	0.000000	0.000000	1	0
GM-930_107	CIRCULAR	0.670000	0.000000	0.000000	0.000000	1	0
GM-930_108	CIRCULAR	0.670000	0.000000	0.000000	0.000000	1	0
GM-930_109	CIRCULAR	0.670000	0.000000	0.000000	0.000000	1	0
GM-930_110	CIRCULAR	0.670000	0.000000	0.000000	0.000000	1	0
GM-930_111	CIRCULAR	0.670000	0.000000	0.000000	0.000000	1	0
GM-930_112	CIRCULAR	0.670000	0.000000	0.000000	0.000000	1	0
GM-930_113	CIRCULAR	0.670000	0.000000	0.000000	0.000000	1	0
GM-930_114	CIRCULAR	0.670000	0.000000	0.000000	0.000000	1	0
GM-930_115	CIRCULAR	0.670000	0.000000	0.000000	0.000000	1	0
GM-930_116	CIRCULAR	0.670000	0.000000	0.000000	0.000000	1	0
GM-930_117	CIRCULAR	0.670000	0.000000	0.000000	0.000000	1	0
GM-930_118	CIRCULAR	0.670000	0.000000	0.000000	0.000000	1	0
GM-930_119	CIRCULAR	0.670000	0.000000	0.000000	0.000000	1	0
GM-930_120	CIRCULAR	0.670000	0.000000	0.000000	0.000000	1	0
GM-930_121	CIRCULAR	0.670000	0.000000	0.000000	0.000000	1	0
GM-930_122	CIRCULAR	0.670000	0.000000	0.000000	0.000000	1	0
GM-930_123	CIRCULAR	0.670000	0.000000	0.000000	0.000000	1	0
GM-930_124	CIRCULAR	0.670000	0.000000	0.000000	0.000000	1	0
GM-930_125	CIRCULAR	0.670000	0.000000	0.000000	0.000000	1	0
GM-930_126	CIRCULAR	0.670000	0.000000	0.000000	0.000000	1	0
GM-930_127	CIRCULAR	0.670000	0.000000	0.000000	0.000000	1	0
GM-930_128	CIRCULAR	0.670000	0.000000	0.000000	0.000000	1	0
GM-930_129	CIRCULAR	0.670000	0.000000	0.000000	0.000000	1	0
GM-930_130	CIRCULAR	0.670000	0.000000	0.000000	0.000000	1	0
GM-930_131	CIRCULAR	0.670000	0.000000	0.000000	0.000000	1	0
GM-930_132	CIRCULAR	0.670000	0.000000	0.000000	0.000000	1	0
GM-930_133	CIRCULAR	0.670000	0.000000	0.000000	0.000000	1	0
GM-930_134	CIRCULAR	1.000000	0.000000	0.000000	0.000000	1	0
GM-930_135	CIRCULAR	1.000000	0.000000	0.000000	0.000000	1	0
GM-930_136	CIRCULAR	0.670000	0.000000	0.000000	0.000000	1	0
GM-930_137	CIRCULAR	0.670000	0.000000	0.000000	0.000000	1	0
GM-930_138	CIRCULAR	0.670000	0.000000	0.000000	0.000000	1	0
GM-930_139	CIRCULAR	0.670000	0.000000	0.000000	0.000000	1	0
GM-930_140	CIRCULAR	1.000000	0.000000	0.000000	0.000000	1	0
GM-930_141	CIRCULAR	1.000000	0.000000	0.000000	0.000000	1	0
GM-930_142	CIRCULAR	0.670000	0.000000	0.000000	0.000000	1	0
GM-930_143	CIRCULAR	0.670000	0.000000	0.000000	0.000000	1	0
GM-930_144	CIRCULAR	0.670000	0.000000	0.000000	0.000000	1	0
GM-930_145	CIRCULAR	0.670000	0.000000	0.000000	0.000000	1	0
GM-930_146	CIRCULAR	0.670000	0.000000	0.000000	0.000000	1	0
GM-930_147	CIRCULAR	0.670000	0.000000	0.000000	0.000000	1	0
GM-930_148	CIRCULAR	0.670000	0.000000	0.000000	0.000000	1	0
GM-930_149	CIRCULAR	0.670000	0.000000	0.000000	0.000000	1	0
GM-930_150	CIRCULAR	1.000000	0.000000	0.000000	0.000000	1	0
GM-930_151	CIRCULAR	0.670000	0.000000	0.000000	0.000000	1	0
GM-930_152	CIRCULAR	0.670000	0.000000	0.000000	0.000000	1	0
GM-930_153	CIRCULAR	0.670000	0.000000	0.000000	0.000000	1	0
GM-930_154	CIRCULAR	0.670000	0.000000	0.000000	0.000000	1	0
GM-930_155	CIRCULAR	1.500000	0.000000	0.000000	0.000000	1	0
GM-930_156	CIRCULAR	0.670000	0.000000	0.000000	0.000000	1	0
GM-930_157	CIRCULAR	0.670000	0.000000	0.000000	0.000000	1	0
GM-930_158	CIRCULAR	0.670000	0.000000	0.000000	0.000000	1	0
GM-930_159	CIRCULAR	0.670000	0.000000	0.000000	0.000000	1	0
GM-930_160	CIRCULAR	0.670000	0.000000	0.000000	0.000000	1	0
GM-930_161	CIRCULAR	0.670000	0.000000	0.000000	0.000000	1	0
GM-930_162	CIRCULAR	0.670000	0.000000	0.000000	0.000000	1	0
GM-930_163	CIRCULAR	0.670000	0.000000	0.000000	0.000000	1	0
GM-930_164	CIRCULAR	0.670000	0.000000	0.000000	0.000000	1	0
GM-930_165	CIRCULAR	0.670000	0.000000	0.000000	0.000000	1	0
GM-930_166	CIRCULAR	1.500000	0.000000	0.000000	0.000000	1	0
GM-930_167	CIRCULAR	0.670000	0.000000	0.000000	0.000000	1	0
GM-930_168	CIRCULAR	0.670000	0.000000	0.000000	0.000000	1	0
GM-930_169	CIRCULAR	0.670000	0.000000	0.000000	0.000000	1	0
GM-930_170	CIRCULAR	0.670000	0.000000	0.000000	0.000000	1	0
GM-930_171	CIRCULAR	0.670000	0.000000	0.000000	0.000000	1	0
GM-930_172	CIRCULAR	0.670000	0.000000	0.000000	0.000000	1	0
GM-930_173	CIRCULAR	0.670000	0.000000	0.000000	0.000000	1	0
GM-930_174	CIRCULAR	0.670000	0.000000	0.000000	0.000000	1	0
GM-930_175	CIRCULAR	1.500000	0.000000	0.000000	0.000000	1	0
GM-930_176	CIRCULAR	0.670000	0.000000	0.000000	0.000000	1	0
GM-930_177	CIRCULAR	0.670000	0.000000	0.000000	0.000000	1	0
GM-930_178	CIRCULAR	0.670000	0.000000	0.000000	0.000000	1	0
GM-930_179	CIRCULAR	1.000000	0.000000	0.000000	0.000000	1	0
GM-930_2	CIRCULAR	0.670000	0.000000	0.000000	0.000000	1	0
GM-930_3	CIRCULAR	0.670000	0.000000	0.000000	0.000000	1	0
GM-930_4	CIRCULAR	0.670000	0.000000	0.000000	0.000000	1	0
GM-930_46	CIRCULAR	1.330000	0.000000	0.000000	0.000000	1	0
GM-930_47	CIRCULAR	1.000000	0.000000	0.000000	0.000000	1	0
GM-930_48	CIRCULAR	1.330000	0.000000	0.000000	0.000000	1	0
GM-930_5	CIRCULAR	0.670000	0.000000	0.000000	0.000000	1	0
GM-930_6	CIRCULAR	0.670000	0.000000	0.000000	0.000000	1	0
GM-930_96	CIRCULAR	0.670000	0.000000	0.000000	0.000000	1	0
GM-930_97	CIRCULAR	0.670000	0.000000	0.000000	0.000000	1	0
GM-930_98	CIRCULAR	0.670000	0.000000	0.000000	0.000000	1	0
GM-930_99	CIRCULAR	0.670000	0.000000	0.000000	0.000000	1	0
PX-9609	CIRCULAR	0.330000	0.000000	0.000000	0.000000	1	0
WW-147_BC_CON	CIRCULAR	5.000000	50.000000	0.000000	0.000000	1	0
WW-232_COND	CIRCULAR	2.000000	0.000000	0.000000	0.000000	1	0

[TRANSECTS]

[LOSSES]
FM-824_1	0.000000	0.000000	0.000000	YES	0.000000
FM-824_10	0.000000	0.000000	0.000000	YES	0.000000
FM-824_2	0.000000	0.000000	0.000000	YES	0.000000
FM-824_20	0.000000	0.000000	0.000000	YES	0.000000
FM-824_21	0.000000	0.000000	0.000000	YES	0.000000
FM-824_22	0.000000	0.000000	0.000000	YES	0.000000
FM-824_25	0.000000	0.000000	0.000000	YES	0.000000
FM-824_26	0.000000	0.000000	0.000000	YES	0.000000
FM-824_8	0.000000	0.000000	0.000000	YES	0.000000
FM-825_10	0.000000	0.000000	0.000000	YES	0.000000
FM-825_6	0.000000	0.000000	0.000000	YES	0.000000
FM-825_7	0.000000	0.000000	0.000000	YES	0.000000
FM-919_22	0.000000	0.000000	0.000000	YES	0.000000
FM-919_26	0.000000	0.000000	0.000000	YES	0.000000
FM-919_3	0.000000	0.000000	0.000000	YES	0.000000
FM-919_9	0.000000	0.000000	0.000000	YES	0.000000
FM-920_1	0.000000	0.000000	0.000000	YES	0.000000
FM-920_12	0.000000	0.000000	0.000000	YES	0.000000
FM-920_23	0.000000	0.000000	0.000000	YES	0.000000
FM-929_19	0.000000	0.000000	0.000000	YES	0.000000
FM-929_40	0.000000	0.000000	0.000000	YES	0.000000
FM-929_43	0.000000	0.000000	0.000000	YES	0.000000
FM-929_5	0.000000	0.000000	0.000000	YES	0.000000
FM-930_16	0.000000	0.000000	0.000000	YES	0.000000
FM-930_19	0.000000	0.000000	0.000000	YES	0.000000
FM-930_24	0.000000	0.000000	0.000000	YES	0.000000
FM-930_28	0.000000	0.000000	0.000000	YES	0.000000
FM-930_38	0.000000	0.000000	0.000000	YES	0.000000
FM-LS1002	0.000000	0.000000	0.000000	YES	0.000000
FM-LS1003	0.000000	0.000000	0.000000	YES	0.000000
FM-LS147	0.000000	0.000000	0.000000	YES	0.000000
FM-LS220	0.000000	0.000000	0.000000	YES	0.000000
FM-LS221	0.000000	0.000000	0.000000	YES	0.000000
FM-LS222	0.000000	0.000000	0.000000	YES	0.000000
FM-LS223	0.000000	0.000000	0.000000	YES	0.000000
FM-LS224	0.000000	0.000000	0.000000	YES	0.000000
FM-LS225	0.000000	0.000000	0.000000	YES	0.000000
FM-LS226	0.000000	0.000000	0.000000	YES	0.000000
FM-LS227	0.000000	0.000000	0.000000	YES	0.000000
FM-LS228	0.000000	0.000000	0.000000	YES	0.000000
FM-LS229	0.000000	0.000000	0.000000	YES	0.000000
FM-LS230	0.000000	0.000000	0.000000	YES	0.000000
FM-LS231	0.000000	0.000000	0.000000	YES	0.000000
FM-LS232	0.000000	0.000000	0.000000	YES	0.000000
FM-LS242	0.000000	0.000000	0.000000	YES	0.000000
FM-LS243	0.000000	0.000000	0.000000	YES	0.000000
FM-LS246	0.000000	0.000000	0.000000	YES	0.000000
FM-LS247	0.000000	0.000000	0.000000	YES	0.000000
FM-LS250	0.000000	0.000000	0.000000	YES	0.000000
FM-LS251	0.000000	0.000000	0.000000	YES	0.000000
FM-LS258	0.000000	0.000000	0.000000	YES	0.000000
GM-813_1	0.000000	0.000000	0.000000	NO	0.000000
GM-813_2	0.000000	0.000000	0.000000	NO	0.000000
GM-813_3	0.000000	0.000000	0.000000	NO	0.000000
GM-824_1	0.000000	0.000000	0.000000	NO	0.000000
GM-824_10	0.000000	0.000000	0.000000	NO	0.000000
GM-824_100	0.000000	0.000000	0.000000	NO	0.000000
GM-824_101	0.000000	0.000000	0.000000	NO	0.000000
GM-824_102	0.000000	0.000000	0.000000	NO	0.000000
GM-824_103	0.000000	0.000000	0.000000	NO	0.000000
GM-824_104	0.000000	0.000000	0.000000	NO	0.000000
GM-824_105	0.000000	0.000000	0.000000	NO	0.000000
GM-824_106	0.000000	0.000000	0.000000	NO	0.000000
GM-824_107	0.000000	0.000000	0.000000	NO	0.000000
GM-824_108	0.000000	0.000000	0.000000	NO	0.000000
GM-824_109	0.000000	0.000000	0.000000	NO	0.000000
GM-824_11	0.000000	0.000000	0.000000	NO	0.000000
GM-824_110	0.000000	0.000000	0.000000	NO	0.000000
GM-824_111	0.000000	0.000000	0.000000	NO	0.000000
GM-824_112	0.000000	0.000000	0.000000	NO	0.000000
GM-824_113	0.000000	0.000000	0.000000	NO	0.000000
GM-824_114	0.000000	0.000000	0.000000	NO	0.000000
GM-824_115	0.000000	0.000000	0.000000	NO	0.000000
GM-824_116	0.000000	0.000000	0.000000	NO	0.000000
GM-824_117	0.000000	0.000000	0.000000	NO	0.000000
GM-824_118	0.000000	0.000000	0.000000	NO	0.000000
GM-824_119	0.000000	0.000000	0.000000	NO	0.000000
GM-824_12	0.000000	0.000000	0.000000	NO	0.000000
GM-824_120	0.000000	0.000000	0.000000	NO	0.000000
GM-824_121	0.000000	0.000000	0.000000	NO	0.000000
GM-824_122	0.000000	0.000000	0.000000	NO	0.000000
GM-824_123	0.000000	0.000000	0.000000	NO	0.000000
GM-824_124	0.000000	0.000000	0.000000	NO	0.000000
GM-824_125	0.000000	0.000000	0.000000	NO	0.000000
GM-824_126	0.000000	0.000000	0.000000	NO	0.000000
GM-824_127	0.000000	0.000000	0.000000	NO	0.000000
GM-824_128	0.000000	0.000000	0.000000	NO	0.000000
GM-824_129	0.000000	0.000000	0.000000	NO	0.000000
GM-824_13	0.000000	0.000000	0.000000	NO	0.000000
GM-824_130	0.000000	0.000000	0.000000	NO	0.000000
GM-824_131	0.000000	0.000000	0.000000	NO	0.000000
GM-824_132	0.000000	0.000000	0.000000	NO	0.000000
GM-824_133	0.000000	0.000000	0.000000	NO	0.000000
GM-824_134	0.000000	0.000000	0.000000	NO	0.000000
GM-824_135	0.000000	0.000000	0.000000	NO	0.000000
GM-824_136	0.000000	0.000000	0.000000	NO	0.000000
GM-824_137	0.000000	0.000000	0.000000	NO	0.000000
GM-824_138	0.000000	0.000000	0.000000	NO	0.000000
GM-824_139	0.000000	0.000000	0.000000	NO	0.000000
GM-824_14	0.000000	0.000000	0.000000	NO	0.000000
GM-824_140	0.000000	0.000000	0.000000	NO	0.000000
GM-824_141	0.000000	0.000000	0.000000	NO	0.000000
GM-824_142	0.000000	0.000000	0.000000	NO	0.000000
GM-824_143	0.000000	0.000000	0.000000	NO	0.000000
GM-824_144	0.000000	0.000000	0.000000	NO	0.000000
GM-824_145	0.000000	0.000000	0.000000	NO	0.000000
GM-824_146	0.000000	0.000000	0.000000	NO	0.000000
GM-824_147	0.000000	0.000000	0.000000	NO	0.000000
GM-824_148	0.000000	0.000000	0.000000	NO	0.000000
GM-824_149	0.000000	0.000000	0.000000	NO	0.000000
GM-824_15	0.000000	0.000000	0.000000	NO	0.000000
GM-824_150	0.000000	0.000000	0.000000	NO	0.000000
GM-824_151	0.000000	0.000000	0.000000	NO	0.000000
GM-824_152	0.000000	0.000000	0.000000	NO	0.000000
GM-824_153	0.000000	0.000000	0.000000	NO	0.000000
GM-824_154	0.000000	0.000000	0.000000	NO	0.000000
GM-824_155	0.000000	0.000000	0.000000	NO	0.000000
GM-824_156	0.000000	0.000000	0.000000	NO	0.000000
GM-824_157	0.000000	0.000000	0.000000	NO	0.000000
GM-824_158	0.000000	0.000000	0.000000	NO	0.000000
GM-824_159	0.000000	0.000000	0.000000	NO	0.000000
GM-824_16	0.000000	0.000000	0.000000	NO	0.000000
GM-824_160	0.000000	0.000000	0.000000	NO	0.000000
GM-824_161	0.000000	0.000000	0.000000	NO	0.000000
GM-824_162	0.000000	0.000000	0.000000	NO	0.000000
GM-824_163	0.000000	0.000000	0.000000	NO	0.000000
GM-824_164	0.000000	0.000000	0.000000	NO	0.000000
GM-824_17	0.000000	0.000000	0.000000	NO	0.000000
GM-824_18	0.000000	0.000000	0.000000	NO	0.000000
GM-824_19	0.000000	0.000000	0.000000	NO	0.000000
GM-824_2	0.000000	0.000000	0.000000	NO	0.000000
GM-824_20	0.000000	0.000000	0.000000	NO	0.000000
GM-824_21	0.000000	0.000000	0.000000	NO	0.000000
GM-824_22	0.000000	0.000000	0.000000	NO	0.000000
GM-824_23	0.000000	0.000000	0.000000	NO	0.000000
GM-824_24	0.000000	0.000000	0.000000	NO	0.000000
GM-824_25	0.000000	0.000000	0.000000	NO	0.000000
GM-824_26	0.000000	0.000000	0.000000	NO	0.000000
GM-824_27	0.000000	0.000000	0.000000	NO	0.000000
GM-824_28	0.000000	0.000000	0.000000	NO	0.000000
GM-824_29	0.000000	0.000000	0.000000	NO	0.000000
GM-824_3	0.000000	0.000000	0.000000	NO	0.000000
GM-824_30	0.000000	0.000000	0.000000	NO	0.000000
GM-824_31	0.000000	0.000000	0.000000	NO	0.000000
GM-824_32	0.000000	0.000000	0.000000	NO	0.000000
GM-824_33	0.000000	0.000000	0.000000	NO	0.000000
GM-824_34	0.000000	0.000000	0.000000	NO	0.000000
GM-824_35	0.000000	0.000000	0.000000	NO	0.000000
GM-824_36	0.000000	0.000000	0.000000	NO	0.000000
GM-824_37	0.000000	0.000000	0.000000	NO	0.000000
GM-824_38	0.000000	0.000000	0.000000	NO	0.000000
GM-824_39	0.000000	0.000000	0.000000	NO	0.000000
GM-824_4	0.000000	0.000000	0.000000	NO	0.000000
GM-824_40	0.000000	0.000000	0.000000	NO	0.000000
GM-824_41	0.000000	0.000000	0.000000	NO	0.000000
GM-824_42	0.000000	0.000000	0.000000	NO	0.000000
GM-824_43	0.000000	0.000000	0.000000	NO	0.000000
GM-824_44	0.000000	0.000000	0.000000	NO	0.000000
GM-824_45	0.000000	0.000000	0.000000	NO	0.000000
GM-824_46	0.000000	0.000000	0.000000	NO	0.000000
GM-824_47	0.000000	0.000000	0.000000	NO	0.000000
GM-824_48	0.000000	0.000000	0.000000	NO	0.000000
GM-824_49	0.000000	0.000000	0.000000	NO	0.000000
GM-824_5	0.000000	0.000000	0.000000	NO	0.000000
GM-824_50	0.000000	0.000000	0.000000	NO	0.000000
GM-824_51	0.000000	0.000000	0.000000	NO	0.000000
GM-824_52	0.000000	0.000000	0.000000	NO	0.000000
GM-824_53	0.000000	0.000000	0.000000	NO	0.000000
GM-824_54	0.000000	0.000000	0.000000	NO	0.000000
GM-824_55	0.000000	0.000000	0.000000	NO	0.000000
GM-824_56	0.000000	0.000000	0.000000	NO	0.000000
GM-824_57	0.000000	0.000000	0.000000	NO	0.000000
GM-824_58	0.000000	0.000000	0.000000	NO	0.000000
GM-824_59	0.000000	0.000000	0.000000	NO	0.000000
GM-824_6	0.000000	0.000000	0.000000	NO	0.000000
GM-824_60	0.000000	0.000000	0.000000	NO	0.000000
GM-824_61	0.000000	0.000000	0.000000	NO	0.000000
GM-824_62	0.000000	0.000000	0.000000	NO	0.000000
GM-824_63	0.000000	0.000000	0.000000	NO	0.000000
GM-824_64	0.000000	0.000000	0.000000	NO	0.000000
GM-824_65	0.000000	0.000000	0.000000	NO	0.000000
GM-824_66	0.000000	0.000000	0.000000	NO	0.000000
GM-824_67	0.000000	0.000000	0.000000	NO	0.000000
GM-824_68	0.000000	0.000000	0.000000	NO	0.000000
GM-824_69	0.000000	0.000000	0.000000	NO	0.000000
GM-824_7	0.000000	0.000000	0.000000	NO	0.000000
GM-824_70	0.000000	0.000000	0.000000	NO	0.000000
GM-824_71	0.000000	0.000000	0.000000	NO	0.000000
GM-824_72	0.000000	0.000000	0.000000	NO	0.000000
GM-824_73	0.000000	0.000000	0.000000	NO	0.000000
GM-824_74	0.000000	0.000000	0.000000	NO	0.000000
GM-824_75	0.000000	0.000000	0.000000	NO	0.000000
GM-824_76	0.000000	0.000000	0.000000	NO	0.000000
GM-824_77	0.000000	0.000000	0.000000	NO	0.000000
GM-824_78	0.000000	0.000000	0.000000	NO	0.000000
GM-824_79	0.000000	0.000000	0.000000	NO	0.000000
GM-824_8	0.000000	0.000000	0.000000	NO	0.000000
GM-824_80	0.000000	0.000000	0.000000	NO	0.000000
GM-824_81	0.000000	0.000000	0.000000	NO	0.000000
GM-824_82	0.000000	0.000000	0.000000	NO	0.000000
GM-824_83	0.000000	0.000000	0.000000	NO	0.000000
GM-824_84	0.000000	0.000000	0.000000	NO	0.000000
GM-824_85	0.000000	0.000000	0.000000	NO	0.000000
GM-824_86	0.000000	0.000000	0.000000	NO	0.000000
GM-824_87	0.000000	0.000000	0.000000	NO	0.000000
GM-824_88	0.000000	0.000000	0.000000	NO	0.000000
GM-824_89	0.000000	0.000000	0.000000	NO	0.000000
GM-824_9	0.000000	0.000000	0.000000	NO	0.000000
GM-824_90	0.000000	0.000000	0.000000	NO	0.000000
GM-824_91	0.000000	0.000000	0.000000	NO	0.000000
GM-824_92	0.000000	0.000000	0.000000	NO	0.000000
GM-824_93	0.000000	0.000000	0.000000	NO	0.000000
GM-824_94	0.000000	0.000000	0.000000	NO	0.000000
GM-824_95	0.000000	0.000000	0.000000	NO	0.000000
GM-824_96	0.000000	0.000000	0.000000	NO	0.000000
GM-824_97	0.000000	0.000000	0.000000	NO	0.000000
GM-824_98	0.000000	0.000000	0.000000	NO	0.000000
GM-824_99	0.000000	0.000000	0.000000	NO	0.000000
GM-825_10	0.000000	0.000000	0.000000	NO	0.000000
GM-825_11	0.000000	0.000000	0.000000	NO	0.000000
GM-825_12	0.000000	0.000000	0.000000	NO	0.000000
GM-825_13	0.000000	0.000000	0.000000	NO	0.000000
GM-825_14	0.000000	0.000000	0.000000	NO	0.000000
GM-825_2	0.000000	0.000000	0.000000	NO	0.000000
GM-825_3	0.000000	0.000000	0.000000	NO	0.000000
GM-825_4	0.000000	0.000000	0.000000	NO	0.000000
GM-825_5	0.000000	0.000000	0.000000	NO	0.000000
GM-825_6	0.000000	0.000000	0.000000	NO	0.000000
GM-825_7	0.000000	0.000000	0.000000	NO	0.000000
GM-825_8	0.000000	0.000000	0.000000	NO	0.000000
GM-825_9	0.000000	0.000000	0.000000	NO	0.000000
GM-919_1	0.000000	0.000000	0.000000	NO	0.000000
GM-919_10	0.000000	0.000000	0.000000	NO	0.000000
GM-919_100	0.000000	0.000000	0.000000	NO	0.000000
GM-919_101	0.000000	0.000000	0.000000	NO	0.000000
GM-919_102	0.000000	0.000000	0.000000	NO	0.000000
GM-919_103	0.000000	0.000000	0.000000	NO	0.000000
GM-919_104	0.000000	0.000000	0.000000	NO	0.000000
GM-919_105	0.000000	0.000000	0.000000	NO	0.000000
GM-919_106	0.000000	0.000000	0.000000	NO	0.000000
GM-919_107	0.000000	0.000000	0.000000	NO	0.000000
GM-919_108	0.000000	0.000000	0.000000	NO	0.000000
GM-919_109	0.000000	0.000000	0.000000	NO	0.000000
GM-919_11	0.000000	0.000000	0.000000	NO	0.000000
GM-919_110	0.000000	0.000000	0.000000	NO	0.000000
GM-919_111	0.000000	0.000000	0.000000	NO	0.000000
GM-919_112	0.000000	0.000000	0.000000	NO	0.000000
GM-919_113	0.000000	0.000000	0.000000	NO	0.000000
GM-919_114	0.000000	0.000000	0.000000	NO	0.000000
GM-919_115	0.000000	0.000000	0.000000	NO	0.000000
GM-919_116	0.000000	0.000000	0.000000	NO	0.000000
GM-919_117	0.000000	0.000000	0.000000	NO	0.000000
GM-919_118	0.000000	0.000000	0.000000	NO	0.000000
GM-919_119	0.000000	0.000000	0.000000	NO	0.000000
GM-919_12	0.000000	0.000000	0.000000	NO	0.000000
GM-919_120	0.000000	0.000000	0.000000	NO	0.000000
GM-919_121	0.000000	0.000000	0.000000	NO	0.000000
GM-919_122	0.000000	0.000000	0.000000	NO	0.000000
GM-919_123	0.000000	0.000000	0.000000	NO	0.000000
GM-919_124	0.000000	0.000000	0.000000	NO	0.000000
GM-919_125	0.000000	0.000000	0.000000	NO	0.000000
GM-919_126	0.000000	0.000000	0.000000	NO	0.000000
GM-919_127	0.000000	0.000000	0.000000	NO	0.000000
GM-919_128	0.000000	0.000000	0.000000	NO	0.000000
GM-919_129	0.000000	0.000000	0.000000	NO	0.000000
GM-919_13	0.000000	0.000000	0.000000	NO	0.000000
GM-919_130	0.000000	0.000000	0.000000	NO	0.000000
GM-919_131	0.000000	0.000000	0.000000	NO	0.000000
GM-919_132	0.000000	0.000000	0.000000	NO	0.000000
GM-919_133	0.000000	0.000000	0.000000	NO	0.000000
GM-919_134	0.000000	0.000000	0.000000	NO	0.000000
GM-919_135	0.000000	0.000000	0.000000	NO	0.000000
GM-919_136	0.000000	0.000000	0.000000	NO	0.000000
GM-919_137	0.000000	0.000000	0.000000	NO	0.000000
GM-919_138	0.000000	0.000000	0.000000	NO	0.000000
GM-919_139	0.000000	0.000000	0.000000	NO	0.000000
GM-919_14	0.000000	0.000000	0.000000	NO	0.000000
GM-919_140	0.000000	0.000000	0.000000	NO	0.000000
GM-919_141	0.000000	0.000000	0.000000	NO	0.000000
GM-919_142	0.000000	0.000000	0.000000	NO	0.000000
GM-919_143	0.000000	0.000000	0.000000	NO	0.000000
GM-919_144	0.000000	0.000000	0.000000	NO	0.000000
GM-919_145	0.000000	0.000000	0.000000	NO	0.000000
GM-919_146	0.000000	0.000000	0.000000	NO	0.000000
GM-919_147	0.000000	0.000000	0.000000	NO	0.000000
GM-919_148	0.000000	0.000000	0.000000	NO	0.000000
GM-919_149	0.000000	0.000000	0.000000	NO	0.000000
GM-919_15	0.000000	0.000000	0.000000	NO	0.000000
GM-919_150	0.000000	0.000000	0.000000	NO	0.000000
GM-919_151	0.000000	0.000000	0.000000	NO	0.000000
GM-919_152	0.000000	0.000000	0.000000	NO	0.000000
GM-919_153	0.000000	0.000000	0.000000	NO	0.000000
GM-919_154	0.000000	0.000000	0.000000	NO	0.000000
GM-919_155	0.000000	0.000000	0.000000	NO	0.000000
GM-919_156	0.000000	0.000000	0.000000	NO	0.000000
GM-919_157	0.000000	0.000000	0.000000	NO	0.000000
GM-919_158	0.000000	0.000000	0.000000	NO	0.000000
GM-919_159	0.000000	0.000000	0.000000	NO	0.000000
GM-919_16	0.000000	0.000000	0.000000	NO	0.000000
GM-919_160	0.000000	0.000000	0.000000	NO	0.000000
GM-919_161	0.000000	0.000000	0.000000	NO	0.000000
GM-919_162	0.000000	0.000000	0.000000	NO	0.000000
GM-919_163	0.000000	0.000000	0.000000	NO	0.000000
GM-919_164	0.000000	0.000000	0.000000	NO	0.000000
GM-919_165	0.000000	0.000000	0.000000	NO	0.000000
GM-919_166	0.000000	0.000000	0.000000	NO	0.000000
GM-919_167	0.000000	0.000000	0.000000	NO	0.000000
GM-919_168	0.000000	0.000000	0.000000	NO	0.000000
GM-919_169	0.000000	0.000000	0.000000	NO	0.000000
GM-919_17	0.000000	0.000000	0.000000	NO	0.000000
GM-919_170	0.000000	0.000000	0.000000	NO	0.000000
GM-919_171	0.000000	0.000000	0.000000	NO	0.000000
GM-919_172	0.000000	0.000000	0.000000	NO	0.000000
GM-919_173	0.000000	0.000000	0.000000	NO	0.000000
GM-919_174	0.000000	0.000000	0.000000	NO	0.000000
GM-919_175	0.000000	0.000000	0.000000	NO	0.000000
GM-919_176	0.000000	0.000000	0.000000	NO	0.000000
GM-919_177	0.000000	0.000000	0.000000	NO	0.000000
GM-919_178	0.000000	0.000000	0.000000	NO	0.000000
GM-919_179	0.000000	0.000000	0.000000	NO	0.000000
GM-919_18	0.000000	0.000000	0.000000	NO	0.000000
GM-919_180	0.000000	0.000000	0.000000	NO	0.000000
GM-919_181	0.000000	0.000000	0.000000	NO	0.000000
GM-919_182	0.000000	0.000000	0.000000	NO	0.000000
GM-919_183	0.000000	0.000000	0.000000	NO	0.000000
GM-919_184	0.000000	0.000000	0.000000	NO	0.000000
GM-919_185	0.000000	0.000000	0.000000	NO	0.000000
GM-919_186	0.000000	0.000000	0.000000	NO	0.000000
GM-919_187	0.000000	0.000000	0.000000	NO	0.000000
GM-919_188	0.000000	0.000000	0.000000	NO	0.000000
GM-919_189	0.000000	0.000000	0.000000	NO	0.000000
GM-919_19	0.000000	0.000000	0.000000	NO	0.000000
GM-919_190	0.000000	0.000000	0.000000	NO	0.000000
GM-919_191	0.000000	0.000000	0.000000	NO	0.000000
GM-919_192	0.000000	0.000000	0.000000	NO	0.000000
GM-919_193	0.000000	0.000000	0.000000	NO	0.000000
GM-919_194	0.000000	0.000000	0.000000	NO	0.000000
GM-919_195	0.000000	0.000000	0.000000	NO	0.000000
GM-919_196	0.000000	0.000000	0.000000	NO	0.000000
GM-919_197	0.000000	0.000000	0.000000	NO	0.000000
GM-919_198	0.000000	0.000000	0.000000	NO	0.000000
GM-919_199	0.000000	0.000000	0.000000	NO	0.000000
GM-919_2	0.000000	0.000000	0.000000	NO	0.000000
GM-919_20	0.000000	0.000000	0.000000	NO	0.000000
GM-919_200	0.000000	0.000000	0.000000	NO	0.000000
GM-919_201	0.000000	0.000000	0.000000	NO	0.000000
GM-919_202	0.000000	0.000000	0.000000	NO	0.000000
GM-919_203	0.000000	0.000000	0.000000	NO	0.000000
GM-919_204	0.000000	0.000000	0.000000	NO	0.000000
GM-919_205	0.000000	0.000000	0.000000	NO	0.000000
GM-919_206	0.000000	0.000000	0.000000	NO	0.000000
GM-919_207	0.000000	0.000000	0.000000	NO	0.000000
GM-919_208	0.000000	0.000000	0.000000	NO	0.000000
GM-919_209	0.000000	0.000000	0.000000	NO	0.000000
GM-919_21	0.000000	0.000000	0.000000	NO	0.000000
GM-919_210	0.000000	0.000000	0.000000	NO	0.000000
GM-919_211	0.000000	0.000000	0.000000	NO	0.000000
GM-919_212	0.000000	0.000000	0.000000	NO	0.000000
GM-919_213	0.000000	0.000000	0.000000	NO	0.000000
GM-919_214	0.000000	0.000000	0.000000	NO	0.000000
GM-919_215	0.000000	0.000000	0.000000	NO	0.000000
GM-919_216	0.000000	0.000000	0.000000	NO	0.000000
GM-919_217	0.000000	0.000000	0.000000	NO	0.000000
GM-919_218	0.000000	0.000000	0.000000	NO	0.000000
GM-919_219	0.000000	0.000000	0.000000	NO	0.000000
GM-919_22	0.000000	0.000000	0.000000	NO	0.000000
GM-919_220	0.000000	0.000000	0.000000	NO	0.000000
GM-919_221	0.000000	0.000000	0.000000	NO	0.000000
GM-919_222	0.000000	0.000000	0.000000	NO	0.000000
GM-919_223	0.000000	0.000000	0.000000	NO	0.000000
GM-919_224	0.000000	0.000000	0.000000	NO	0.000000
GM-919_225	0.000000	0.000000	0.000000	NO	0.000000
GM-919_226	0.000000	0.000000	0.000000	NO	0.000000
GM-919_227	0.000000	0.000000	0.000000	NO	0.000000
GM-919_228	0.000000	0.000000	0.000000	NO	0.000000
GM-919_229	0.000000	0.000000	0.000000	NO	0.000000
GM-919_23	0.000000	0.000000	0.000000	NO	0.000000
GM-919_230	0.000000	0.000000	0.000000	NO	0.000000
GM-919_231	0.000000	0.000000	0.000000	NO	0.000000
GM-919_232	0.000000	0.000000	0.000000	NO	0.000000
GM-919_233	0.000000	0.000000	0.000000	NO	0.000000
GM-919_234	0.000000	0.000000	0.000000	NO	0.000000
GM-919_24	0.000000	0.000000	0.000000	NO	0.000000
GM-919_25	0.000000	0.000000	0.000000	NO	0.000000
GM-919_26	0.000000	0.000000	0.000000	NO	0.000000
GM-919_27	0.000000	0.000000	0.000000	NO	0.000000
GM-919_28	0.000000	0.000000	0.000000	NO	0.000000
GM-919_29	0.000000	0.000000	0.000000	NO	0.000000
GM-919_3	0.000000	0.000000	0.000000	NO	0.000000
GM-919_30	0.000000	0.000000	0.000000	NO	0.000000
GM-919_31	0.000000	0.000000	0.000000	NO	0.000000
GM-919_32	0.000000	0.000000	0.000000	NO	0.000000
GM-919_33	0.000000	0.000000	0.000000	NO	0.000000
GM-919_34	0.000000	0.000000	0.000000	NO	0.000000
GM-919_35	0.000000	0.000000	0.000000	NO	0.000000
GM-919_36	0.000000	0.000000	0.000000	NO	0.000000
GM-919_37	0.000000	0.000000	0.000000	NO	0.000000
GM-919_38	0.000000	0.000000	0.000000	NO	0.000000
GM-919_39	0.000000	0.000000	0.000000	NO	0.000000
GM-919_4	0.000000	0.000000	0.000000	NO	0.000000
GM-919_40	0.000000	0.000000	0.000000	NO	0.000000
GM-919_41	0.000000	0.000000	0.000000	NO	0.000000
GM-919_42	0.000000	0.000000	0.000000	NO	0.000000
GM-919_43	0.000000	0.000000	0.000000	NO	0.000000
GM-919_44	0.000000	0.000000	0.000000	NO	0.000000
GM-919_45	0.000000	0.000000	0.000000	NO	0.000000
GM-919_46	0.000000	0.000000	0.000000	NO	0.000000
GM-919_47	0.000000	0.000000	0.000000	NO	0.000000
GM-919_48	0.000000	0.000000	0.000000	NO	0.000000
GM-919_49	0.000000	0.000000	0.000000	NO	0.000000
GM-919_5	0.000000	0.000000	0.000000	NO	0.000000
GM-919_50	0.000000	0.000000	0.000000	NO	0.000000
GM-919_51	0.000000	0.000000	0.000000	NO	0.000000
GM-919_52	0.000000	0.000000	0.000000	NO	0.000000
GM-919_53	0.000000	0.000000	0.000000	NO	0.000000
GM-919_54	0.000000	0.000000	0.000000	NO	0.000000
GM-919_55	0.000000	0.000000	0.000000	NO	0.000000
GM-919_56	0.000000	0.000000	0.000000	NO	0.000000
GM-919_57	0.000000	0.000000	0.000000	NO	0.000000
GM-919_58	0.000000	0.000000	0.000000	NO	0.000000
GM-919_59	0.000000	0.000000	0.000000	NO	0.000000
GM-919_6	0.000000	0.000000	0.000000	NO	0.000000
GM-919_60	0.000000	0.000000	0.000000	NO	0.000000
GM-919_61	0.000000	0.000000	0.000000	NO	0.000000
GM-919_63	0.000000	0.000000	0.000000	NO	0.000000
GM-919_64	0.000000	0.000000	0.000000	NO	0.000000
GM-919_65	0.000000	0.000000	0.000000	NO	0.000000
GM-919_66	0.000000	0.000000	0.000000	NO	0.000000
GM-919_67	0.000000	0.000000	0.000000	NO	0.000000
GM-919_68	0.000000	0.000000	0.000000	NO	0.000000
GM-919_69	0.000000	0.000000	0.000000	NO	0.000000
GM-919_7	0.000000	0.000000	0.000000	NO	0.000000
GM-919_70	0.000000	0.000000	0.000000	NO	0.000000
GM-919_71	0.000000	0.000000	0.000000	NO	0.000000
GM-919_72	0.000000	0.000000	0.000000	NO	0.000000
GM-919_73	0.000000	0.000000	0.000000	NO	0.000000
GM-919_74	0.000000	0.000000	0.000000	NO	0.000000
GM-919_75	0.000000	0.000000	0.000000	NO	0.000000
GM-919_76	0.000000	0.000000	0.000000	NO	0.000000
GM-919_77	0.000000	0.000000	0.000000	NO	0.000000
GM-919_78	0.000000	0.000000	0.000000	NO	0.000000
GM-919_79	0.000000	0.000000	0.000000	NO	0.000000
GM-919_8	0.000000	0.000000	0.000000	NO	0.000000
GM-919_80	0.000000	0.000000	0.000000	NO	0.000000
GM-919_81	0.000000	0.000000	0.000000	NO	0.000000
GM-919_82	0.000000	0.000000	0.000000	NO	0.000000
GM-919_83	0.000000	0.000000	0.000000	NO	0.000000
GM-919_84	0.000000	0.000000	0.000000	NO	0.000000
GM-919_85	0.000000	0.000000	0.000000	NO	0.000000
GM-919_86	0.000000	0.000000	0.000000	NO	0.000000
GM-919_87	0.000000	0.000000	0.000000	NO	0.000000
GM-919_88	0.000000	0.000000	0.000000	NO	0.000000
GM-919_89	0.000000	0.000000	0.000000	NO	0.000000
GM-919_9	0.000000	0.000000	0.000000	NO	0.000000
GM-919_90	0.000000	0.000000	0.000000	NO	0.000000
GM-919_91	0.000000	0.000000	0.000000	NO	0.000000
GM-919_92	0.000000	0.000000	0.000000	NO	0.000000
GM-919_93	0.000000	0.000000	0.000000	NO	0.000000
GM-919_94	0.000000	0.000000	0.000000	NO	0.000000
GM-919_95	0.000000	0.000000	0.000000	NO	0.000000
GM-919_96	0.000000	0.000000	0.000000	NO	0.000000
GM-919_97	0.000000	0.000000	0.000000	NO	0.000000
GM-919_98	0.000000	0.000000	0.000000	NO	0.000000
GM-919_99	0.000000	0.000000	0.000000	NO	0.000000
GM-920_1	0.000000	0.000000	0.000000	NO	0.000000
GM-920_10	0.000000	0.000000	0.000000	NO	0.000000
GM-920_11	0.000000	0.000000	0.000000	NO	0.000000
GM-920_12	0.000000	0.000000	0.000000	NO	0.000000
GM-920_13	0.000000	0.000000	0.000000	NO	0.000000
GM-920_14	0.000000	0.000000	0.000000	NO	0.000000
GM-920_15	0.000000	0.000000	0.000000	NO	0.000000
GM-920_16	0.000000	0.000000	0.000000	NO	0.000000
GM-920_17	0.000000	0.000000	0.000000	NO	0.000000
GM-920_18	0.000000	0.000000	0.000000	NO	0.000000
GM-920_19	0.000000	0.000000	0.000000	NO	0.000000
GM-920_2	0.000000	0.000000	0.000000	NO	0.000000
GM-920_20	0.000000	0.000000	0.000000	NO	0.000000
GM-920_21	0.000000	0.000000	0.000000	NO	0.000000
GM-920_22	0.000000	0.000000	0.000000	NO	0.000000
GM-920_23	0.000000	0.000000	0.000000	NO	0.000000
GM-920_24	0.000000	0.000000	0.000000	NO	0.000000
GM-920_25	0.000000	0.000000	0.000000	NO	0.000000
GM-920_26	0.000000	0.000000	0.000000	NO	0.000000
GM-920_27	0.000000	0.000000	0.000000	NO	0.000000
GM-920_28	0.000000	0.000000	0.000000	NO	0.000000
GM-920_29	0.000000	0.000000	0.000000	NO	0.000000
GM-920_3	0.000000	0.000000	0.000000	NO	0.000000
GM-920_30	0.000000	0.000000	0.000000	NO	0.000000
GM-920_31	0.000000	0.000000	0.000000	NO	0.000000
GM-920_32	0.000000	0.000000	0.000000	NO	0.000000
GM-920_33	0.000000	0.000000	0.000000	NO	0.000000
GM-920_34	0.000000	0.000000	0.000000	NO	0.000000
GM-920_35	0.000000	0.000000	0.000000	NO	0.000000
GM-920_36	0.000000	0.000000	0.000000	NO	0.000000
GM-920_37	0.000000	0.000000	0.000000	NO	0.000000
GM-920_38	0.000000	0.000000	0.000000	NO	0.000000
GM-920_39	0.000000	0.000000	0.000000	NO	0.000000
GM-920_4	0.000000	0.000000	0.000000	NO	0.000000
GM-920_40	0.000000	0.000000	0.000000	NO	0.000000
GM-920_41	0.000000	0.000000	0.000000	NO	0.000000
GM-920_42	0.000000	0.000000	0.000000	NO	0.000000
GM-920_43	0.000000	0.000000	0.000000	NO	0.000000
GM-920_44	0.000000	0.000000	0.000000	NO	0.000000
GM-920_45	0.000000	0.000000	0.000000	NO	0.000000
GM-920_46	0.000000	0.000000	0.000000	NO	0.000000
GM-920_47	0.000000	0.000000	0.000000	NO	0.000000
GM-920_48	0.000000	0.000000	0.000000	NO	0.000000
GM-920_49	0.000000	0.000000	0.000000	NO	0.000000
GM-920_5	0.000000	0.000000	0.000000	NO	0.000000
GM-920_50	0.000000	0.000000	0.000000	NO	0.000000
GM-920_51	0.000000	0.000000	0.000000	NO	0.000000
GM-920_52	0.000000	0.000000	0.000000	NO	0.000000
GM-920_53	0.000000	0.000000	0.000000	NO	0.000000
GM-920_54	0.000000	0.000000	0.000000	NO	0.000000
GM-920_55	0.000000	0.000000	0.000000	NO	0.000000
GM-920_57	0.000000	0.000000	0.000000	NO	0.000000
GM-920_58	0.000000	0.000000	0.000000	NO	0.000000
GM-920_59	0.000000	0.000000	0.000000	NO	0.000000
GM-920_6	0.000000	0.000000	0.000000	NO	0.000000
GM-920_60	0.000000	0.000000	0.000000	NO	0.000000
GM-920_61	0.000000	0.000000	0.000000	NO	0.000000
GM-920_62	0.000000	0.000000	0.000000	NO	0.000000
GM-920_63	0.000000	0.000000	0.000000	NO	0.000000
GM-920_64	0.000000	0.000000	0.000000	NO	0.000000
GM-920_65	0.000000	0.000000	0.000000	NO	0.000000
GM-920_66	0.000000	0.000000	0.000000	NO	0.000000
GM-920_7	0.000000	0.000000	0.000000	NO	0.000000
GM-920_8	0.000000	0.000000	0.000000	NO	0.000000
GM-920_9	0.000000	0.000000	0.000000	NO	0.000000
GM-928_105	0.000000	0.000000	0.000000	NO	0.000000
GM-928_107	0.000000	0.000000	0.000000	NO	0.000000
GM-928_118	0.000000	0.000000	0.000000	NO	0.000000
GM-928_13	0.000000	0.000000	0.000000	NO	0.000000
GM-928_18	0.000000	0.000000	0.000000	NO	0.000000
GM-928_27	0.000000	0.000000	0.000000	NO	0.000000
GM-928_28	0.000000	0.000000	0.000000	NO	0.000000
GM-928_36	0.000000	0.000000	0.000000	NO	0.000000
GM-928_43	0.000000	0.000000	0.000000	NO	0.000000
GM-928_47	0.000000	0.000000	0.000000	NO	0.000000
GM-928_49	0.000000	0.000000	0.000000	NO	0.000000
GM-928_50	0.000000	0.000000	0.000000	NO	0.000000
GM-928_53	0.000000	0.000000	0.000000	NO	0.000000
GM-928_58	0.000000	0.000000	0.000000	NO	0.000000
GM-928_6	0.000000	0.000000	0.000000	NO	0.000000
GM-928_65	0.000000	0.000000	0.000000	NO	0.000000
GM-928_66	0.000000	0.000000	0.000000	NO	0.000000
GM-928_67	0.000000	0.000000	0.000000	NO	0.000000
GM-928_69	0.000000	0.000000	0.000000	NO	0.000000
GM-928_76	0.000000	0.000000	0.000000	NO	0.000000
GM-928_81	0.000000	0.000000	0.000000	NO	0.000000
GM-928_86	0.000000	0.000000	0.000000	NO	0.000000
GM-928_87	0.000000	0.000000	0.000000	NO	0.000000
GM-928_88	0.000000	0.000000	0.000000	NO	0.000000
GM-928_89	0.000000	0.000000	0.000000	NO	0.000000
GM-928_90	0.000000	0.000000	0.000000	NO	0.000000
GM-928_91	0.000000	0.000000	0.000000	NO	0.000000
GM-928_92	0.000000	0.000000	0.000000	NO	0.000000
GM-928_98	0.000000	0.000000	0.000000	NO	0.000000
GM-929_1	0.000000	0.000000	0.000000	NO	0.000000
GM-929_10	0.000000	0.000000	0.000000	NO	0.000000
GM-929_100	0.000000	0.000000	0.000000	NO	0.000000
GM-929_101	0.000000	0.000000	0.000000	NO	0.000000
GM-929_102	0.000000	0.000000	0.000000	NO	0.000000
GM-929_103	0.000000	0.000000	0.000000	NO	0.000000
GM-929_104	0.000000	0.000000	0.000000	NO	0.000000
GM-929_105	0.000000	0.000000	0.000000	NO	0.000000
GM-929_106	0.000000	0.000000	0.000000	NO	0.000000
GM-929_107	0.000000	0.000000	0.000000	NO	0.000000
GM-929_108	0.000000	0.000000	0.000000	NO	0.000000
GM-929_109	0.000000	0.000000	0.000000	NO	0.000000
GM-929_11	0.000000	0.000000	0.000000	NO	0.000000
GM-929_110	0.000000	0.000000	0.000000	NO	0.000000
GM-929_111	0.000000	0.000000	0.000000	NO	0.000000
GM-929_112	0.000000	0.000000	0.000000	NO	0.000000
GM-929_114	0.000000	0.000000	0.000000	NO	0.000000
GM-929_115	0.000000	0.000000	0.000000	NO	0.000000
GM-929_116	0.000000	0.000000	0.000000	NO	0.000000
GM-929_118	0.000000	0.000000	0.000000	NO	0.000000
GM-929_119	0.000000	0.000000	0.000000	NO	0.000000
GM-929_12	0.000000	0.000000	0.000000	NO	0.000000
GM-929_120	0.000000	0.000000	0.000000	NO	0.000000
GM-929_121	0.000000	0.000000	0.000000	NO	0.000000
GM-929_122	0.000000	0.000000	0.000000	NO	0.000000
GM-929_123	0.000000	0.000000	0.000000	NO	0.000000
GM-929_124	0.000000	0.000000	0.000000	NO	0.000000
GM-929_125	0.000000	0.000000	0.000000	NO	0.000000
GM-929_126	0.000000	0.000000	0.000000	NO	0.000000
GM-929_128	0.000000	0.000000	0.000000	NO	0.000000
GM-929_13	0.000000	0.000000	0.000000	NO	0.000000
GM-929_130	0.000000	0.000000	0.000000	NO	0.000000
GM-929_131	0.000000	0.000000	0.000000	NO	0.000000
GM-929_132	0.000000	0.000000	0.000000	NO	0.000000
GM-929_133	0.000000	0.000000	0.000000	NO	0.000000
GM-929_134	0.000000	0.000000	0.000000	NO	0.000000
GM-929_135	0.000000	0.000000	0.000000	NO	0.000000
GM-929_136	0.000000	0.000000	0.000000	NO	0.000000
GM-929_137	0.000000	0.000000	0.000000	NO	0.000000
GM-929_138	0.000000	0.000000	0.000000	NO	0.000000
GM-929_14	0.000000	0.000000	0.000000	NO	0.000000
GM-929_140	0.000000	0.000000	0.000000	NO	0.000000
GM-929_142	0.000000	0.000000	0.000000	NO	0.000000
GM-929_143	0.000000	0.000000	0.000000	NO	0.000000
GM-929_144	0.000000	0.000000	0.000000	NO	0.000000
GM-929_145	0.000000	0.000000	0.000000	NO	0.000000
GM-929_146	0.000000	0.000000	0.000000	NO	0.000000
GM-929_147	0.000000	0.000000	0.000000	NO	0.000000
GM-929_148	0.000000	0.000000	0.000000	NO	0.000000
GM-929_149	0.000000	0.000000	0.000000	NO	0.000000
GM-929_15	0.000000	0.000000	0.000000	NO	0.000000
GM-929_150	0.000000	0.000000	0.000000	NO	0.000000
GM-929_151	0.000000	0.000000	0.000000	NO	0.000000
GM-929_152	0.000000	0.000000	0.000000	NO	0.000000
GM-929_153	0.000000	0.000000	0.000000	NO	0.000000
GM-929_154	0.000000	0.000000	0.000000	NO	0.000000
GM-929_155	0.000000	0.000000	0.000000	NO	0.000000
GM-929_158	0.000000	0.000000	0.000000	NO	0.000000
GM-929_16	0.000000	0.000000	0.000000	NO	0.000000
GM-929_161	0.000000	0.000000	0.000000	NO	0.000000
GM-929_162	0.000000	0.000000	0.000000	NO	0.000000
GM-929_164	0.000000	0.000000	0.000000	NO	0.000000
GM-929_165	0.000000	0.000000	0.000000	NO	0.000000
GM-929_166	0.000000	0.000000	0.000000	NO	0.000000
GM-929_167	0.000000	0.000000	0.000000	NO	0.000000
GM-929_168	0.000000	0.000000	0.000000	NO	0.000000
GM-929_169	0.000000	0.000000	0.000000	NO	0.000000
GM-929_17	0.000000	0.000000	0.000000	NO	0.000000
GM-929_171	0.000000	0.000000	0.000000	NO	0.000000
GM-929_174	0.000000	0.000000	0.000000	NO	0.000000
GM-929_175	0.000000	0.000000	0.000000	NO	0.000000
GM-929_176	0.000000	0.000000	0.000000	NO	0.000000
GM-929_177	0.000000	0.000000	0.000000	NO	0.000000
GM-929_18	0.000000	0.000000	0.000000	NO	0.000000
GM-929_180	0.000000	0.000000	0.000000	NO	0.000000
GM-929_181	0.000000	0.000000	0.000000	NO	0.000000
GM-929_182	0.000000	0.000000	0.000000	NO	0.000000
GM-929_184	0.000000	0.000000	0.000000	NO	0.000000
GM-929_188	0.000000	0.000000	0.000000	NO	0.000000
GM-929_19	0.000000	0.000000	0.000000	NO	0.000000
GM-929_190	0.000000	0.000000	0.000000	NO	0.000000
GM-929_196	0.000000	0.000000	0.000000	NO	0.000000
GM-929_198	0.000000	0.000000	0.000000	NO	0.000000
GM-929_199	0.000000	0.000000	0.000000	NO	0.000000
GM-929_2	0.000000	0.000000	0.000000	NO	0.000000
GM-929_20	0.000000	0.000000	0.000000	NO	0.000000
GM-929_201	0.000000	0.000000	0.000000	NO	0.000000
GM-929_204	0.000000	0.000000	0.000000	NO	0.000000
GM-929_205	0.000000	0.000000	0.000000	NO	0.000000
GM-929_206	0.000000	0.000000	0.000000	NO	0.000000
GM-929_207	0.000000	0.000000	0.000000	NO	0.000000
GM-929_209	0.000000	0.000000	0.000000	NO	0.000000
GM-929_21	0.000000	0.000000	0.000000	NO	0.000000
GM-929_211	0.000000	0.000000	0.000000	NO	0.000000
GM-929_212	0.000000	0.000000	0.000000	NO	0.000000
GM-929_213	0.000000	0.000000	0.000000	NO	0.000000
GM-929_214	0.000000	0.000000	0.000000	NO	0.000000
GM-929_217	0.000000	0.000000	0.000000	NO	0.000000
GM-929_218	0.000000	0.000000	0.000000	NO	0.000000
GM-929_22	0.000000	0.000000	0.000000	NO	0.000000
GM-929_221	0.000000	0.000000	0.000000	NO	0.000000
GM-929_223	0.000000	0.000000	0.000000	NO	0.000000
GM-929_224	0.000000	0.000000	0.000000	NO	0.000000
GM-929_226	0.000000	0.000000	0.000000	NO	0.000000
GM-929_227	0.000000	0.000000	0.000000	NO	0.000000
GM-929_23	0.000000	0.000000	0.000000	NO	0.000000
GM-929_230	0.000000	0.000000	0.000000	NO	0.000000
GM-929_239	0.000000	0.000000	0.000000	NO	0.000000
GM-929_24	0.000000	0.000000	0.000000	NO	0.000000
GM-929_240	0.000000	0.000000	0.000000	NO	0.000000
GM-929_25	0.000000	0.000000	0.000000	NO	0.000000
GM-929_26	0.000000	0.000000	0.000000	NO	0.000000
GM-929_27	0.000000	0.000000	0.000000	NO	0.000000
GM-929_28	0.000000	0.000000	0.000000	NO	0.000000
GM-929_29	0.000000	0.000000	0.000000	NO	0.000000
GM-929_3	0.000000	0.000000	0.000000	NO	0.000000
GM-929_30	0.000000	0.000000	0.000000	NO	0.000000
GM-929_32	0.000000	0.000000	0.000000	NO	0.000000
GM-929_33	0.000000	0.000000	0.000000	NO	0.000000
GM-929_34	0.000000	0.000000	0.000000	NO	0.000000
GM-929_35	0.000000	0.000000	0.000000	NO	0.000000
GM-929_36	0.000000	0.000000	0.000000	NO	0.000000
GM-929_37	0.000000	0.000000	0.000000	NO	0.000000
GM-929_38	0.000000	0.000000	0.000000	NO	0.000000
GM-929_39	0.000000	0.000000	0.000000	NO	0.000000
GM-929_4	0.000000	0.000000	0.000000	NO	0.000000
GM-929_40	0.000000	0.000000	0.000000	NO	0.000000
GM-929_44	0.000000	0.000000	0.000000	NO	0.000000
GM-929_46	0.000000	0.000000	0.000000	NO	0.000000
GM-929_47	0.000000	0.000000	0.000000	NO	0.000000
GM-929_48	0.000000	0.000000	0.000000	NO	0.000000
GM-929_49	0.000000	0.000000	0.000000	NO	0.000000
GM-929_5	0.000000	0.000000	0.000000	NO	0.000000
GM-929_50	0.000000	0.000000	0.000000	NO	0.000000
GM-929_51	0.000000	0.000000	0.000000	NO	0.000000
GM-929_52	0.000000	0.000000	0.000000	NO	0.000000
GM-929_53	0.000000	0.000000	0.000000	NO	0.000000
GM-929_54	0.000000	0.000000	0.000000	NO	0.000000
GM-929_56	0.000000	0.000000	0.000000	NO	0.000000
GM-929_57	0.000000	0.000000	0.000000	NO	0.000000
GM-929_58	0.000000	0.000000	0.000000	NO	0.000000
GM-929_59	0.000000	0.000000	0.000000	NO	0.000000
GM-929_6	0.000000	0.000000	0.000000	NO	0.000000
GM-929_63	0.000000	0.000000	0.000000	NO	0.000000
GM-929_64	0.000000	0.000000	0.000000	NO	0.000000
GM-929_65	0.000000	0.000000	0.000000	NO	0.000000
GM-929_66	0.000000	0.000000	0.000000	NO	0.000000
GM-929_67	0.000000	0.000000	0.000000	NO	0.000000
GM-929_68	0.000000	0.000000	0.000000	NO	0.000000
GM-929_69	0.000000	0.000000	0.000000	NO	0.000000
GM-929_7	0.000000	0.000000	0.000000	NO	0.000000
GM-929_70	0.000000	0.000000	0.000000	NO	0.000000
GM-929_71	0.000000	0.000000	0.000000	NO	0.000000
GM-929_72	0.000000	0.000000	0.000000	NO	0.000000
GM-929_73	0.000000	0.000000	0.000000	NO	0.000000
GM-929_74	0.000000	0.000000	0.000000	NO	0.000000
GM-929_75	0.000000	0.000000	0.000000	NO	0.000000
GM-929_77	0.000000	0.000000	0.000000	NO	0.000000
GM-929_78	0.000000	0.000000	0.000000	NO	0.000000
GM-929_8	0.000000	0.000000	0.000000	NO	0.000000
GM-929_80	0.000000	0.000000	0.000000	NO	0.000000
GM-929_81	0.000000	0.000000	0.000000	NO	0.000000
GM-929_82	0.000000	0.000000	0.000000	NO	0.000000
GM-929_84	0.000000	0.000000	0.000000	NO	0.000000
GM-929_85	0.000000	0.000000	0.000000	NO	0.000000
GM-929_86	0.000000	0.000000	0.000000	NO	0.000000
GM-929_87	0.000000	0.000000	0.000000	NO	0.000000
GM-929_88	0.000000	0.000000	0.000000	NO	0.000000
GM-929_89	0.000000	0.000000	0.000000	NO	0.000000
GM-929_9	0.000000	0.000000	0.000000	NO	0.000000
GM-929_90	0.000000	0.000000	0.000000	NO	0.000000
GM-929_91	0.000000	0.000000	0.000000	NO	0.000000
GM-929_92	0.000000	0.000000	0.000000	NO	0.000000
GM-929_93	0.000000	0.000000	0.000000	NO	0.000000
GM-929_99	0.000000	0.000000	0.000000	NO	0.000000
GM-930_1	0.000000	0.000000	0.000000	NO	0.000000
GM-930_100	0.000000	0.000000	0.000000	NO	0.000000
GM-930_101	0.000000	0.000000	0.000000	NO	0.000000
GM-930_102	0.000000	0.000000	0.000000	NO	0.000000
GM-930_103	0.000000	0.000000	0.000000	NO	0.000000
GM-930_104	0.000000	0.000000	0.000000	NO	0.000000
GM-930_105	0.000000	0.000000	0.000000	NO	0.000000
GM-930_106	0.000000	0.000000	0.000000	NO	0.000000
GM-930_107	0.000000	0.000000	0.000000	NO	0.000000
GM-930_108	0.000000	0.000000	0.000000	NO	0.000000
GM-930_109	0.000000	0.000000	0.000000	NO	0.000000
GM-930_110	0.000000	0.000000	0.000000	NO	0.000000
GM-930_111	0.000000	0.000000	0.000000	NO	0.000000
GM-930_112	0.000000	0.000000	0.000000	NO	0.000000
GM-930_113	0.000000	0.000000	0.000000	NO	0.000000
GM-930_114	0.000000	0.000000	0.000000	NO	0.000000
GM-930_115	0.000000	0.000000	0.000000	NO	0.000000
GM-930_116	0.000000	0.000000	0.000000	NO	0.000000
GM-930_117	0.000000	0.000000	0.000000	NO	0.000000
GM-930_118	0.000000	0.000000	0.000000	NO	0.000000
GM-930_119	0.000000	0.000000	0.000000	NO	0.000000
GM-930_120	0.000000	0.000000	0.000000	NO	0.000000
GM-930_121	0.000000	0.000000	0.000000	NO	0.000000
GM-930_122	0.000000	0.000000	0.000000	NO	0.000000
GM-930_123	0.000000	0.000000	0.000000	NO	0.000000
GM-930_124	0.000000	0.000000	0.000000	NO	0.000000
GM-930_125	0.000000	0.000000	0.000000	NO	0.000000
GM-930_126	0.000000	0.000000	0.000000	NO	0.000000
GM-930_127	0.000000	0.000000	0.000000	NO	0.000000
GM-930_128	0.000000	0.000000	0.000000	NO	0.000000
GM-930_129	0.000000	0.000000	0.000000	NO	0.000000
GM-930_130	0.000000	0.000000	0.000000	NO	0.000000
GM-930_131	0.000000	0.000000	0.000000	NO	0.000000
GM-930_132	0.000000	0.000000	0.000000	NO	0.000000
GM-930_133	0.000000	0.000000	0.000000	NO	0.000000
GM-930_134	0.000000	0.000000	0.000000	NO	0.000000
GM-930_135	0.000000	0.000000	0.000000	NO	0.000000
GM-930_136	0.000000	0.000000	0.000000	NO	0.000000
GM-930_137	0.000000	0.000000	0.000000	NO	0.000000
GM-930_138	0.000000	0.000000	0.000000	NO	0.000000
GM-930_139	0.000000	0.000000	0.000000	NO	0.000000
GM-930_140	0.000000	0.000000	0.000000	NO	0.000000
GM-930_141	0.000000	0.000000	0.000000	NO	0.000000
GM-930_142	0.000000	0.000000	0.000000	NO	0.000000
GM-930_143	0.000000	0.000000	0.000000	NO	0.000000
GM-930_144	0.000000	0.000000	0.000000	NO	0.000000
GM-930_145	0.000000	0.000000	0.000000	NO	0.000000
GM-930_146	0.000000	0.000000	0.000000	NO	0.000000
GM-930_147	0.000000	0.000000	0.000000	NO	0.000000
GM-930_148	0.000000	0.000000	0.000000	NO	0.000000
GM-930_149	0.000000	0.000000	0.000000	NO	0.000000
GM-930_150	0.000000	0.000000	0.000000	NO	0.000000
GM-930_151	0.000000	0.000000	0.000000	NO	0.000000
GM-930_152	0.000000	0.000000	0.000000	NO	0.000000
GM-930_153	0.000000	0.000000	0.000000	NO	0.000000
GM-930_154	0.000000	0.000000	0.000000	NO	0.000000
GM-930_155	0.000000	0.000000	0.000000	NO	0.000000
GM-930_156	0.000000	0.000000	0.000000	NO	0.000000
GM-930_157	0.000000	0.000000	0.000000	NO	0.000000
GM-930_158	0.000000	0.000000	0.000000	NO	0.000000
GM-930_159	0.000000	0.000000	0.000000	NO	0.000000
GM-930_160	0.000000	0.000000	0.000000	NO	0.000000
GM-930_161	0.000000	0.000000	0.000000	NO	0.000000
GM-930_162	0.000000	0.000000	0.000000	NO	0.000000
GM-930_163	0.000000	0.000000	0.000000	NO	0.000000
GM-930_164	0.000000	0.000000	0.000000	NO	0.000000
GM-930_165	0.000000	0.000000	0.000000	NO	0.000000
GM-930_166	0.000000	0.000000	0.000000	NO	0.000000
GM-930_167	0.000000	0.000000	0.000000	NO	0.000000
GM-930_168	0.000000	0.000000	0.000000	NO	0.000000
GM-930_169	0.000000	0.000000	0.000000	NO	0.000000
GM-930_170	0.000000	0.000000	0.000000	NO	0.000000
GM-930_171	0.000000	0.000000	0.000000	NO	0.000000
GM-930_172	0.000000	0.000000	0.000000	NO	0.000000
GM-930_173	0.000000	0.000000	0.000000	NO	0.000000
GM-930_174	0.000000	0.000000	0.000000	NO	0.000000
GM-930_175	0.000000	0.000000	0.000000	NO	0.000000
GM-930_176	0.000000	0.000000	0.000000	NO	0.000000
GM-930_177	0.000000	0.000000	0.000000	NO	0.000000
GM-930_178	0.000000	0.000000	0.000000	NO	0.000000
GM-930_179	0.000000	0.000000	0.000000	NO	0.000000
GM-930_2	0.000000	0.000000	0.000000	NO	0.000000
GM-930_3	0.000000	0.000000	0.000000	NO	0.000000
GM-930_4	0.000000	0.000000	0.000000	NO	0.000000
GM-930_46	0.000000	0.000000	0.000000	NO	0.000000
GM-930_47	0.000000	0.000000	0.000000	NO	0.000000
GM-930_48	0.000000	0.000000	0.000000	NO	0.000000
GM-930_5	0.000000	0.000000	0.000000	NO	0.000000
GM-930_6	0.000000	0.000000	0.000000	NO	0.000000
GM-930_96	0.000000	0.000000	0.000000	NO	0.000000
GM-930_97	0.000000	0.000000	0.000000	NO	0.000000
GM-930_98	0.000000	0.000000	0.000000	NO	0.000000
GM-930_99	0.000000	0.000000	0.000000	NO	0.000000
PX-9609	0.000000	0.000000	0.000000	NO	0.000000
WW-147_BC_CON	0.000000	0.000000	0.000000	NO	0.000000
WW-232_COND	0.000000	0.000000	0.000000	NO	0.000000

[CONTROLS]
RULE WW-147_1
IF NODE WW-147 DEPTH <= 2.900000
THEN PUMP PMP1-147 STATUS = OFF
PRIORITY 2.000000

RULE WW-147_2
IF NODE WW-147 DEPTH <= 2.900000
THEN PUMP PMP2-147 STATUS = OFF
PRIORITY 2.000000

RULE WW-147_3
IF NODE WW-147 DEPTH > 12.000000
THEN PUMP PMP2-147 STATUS = ON
PRIORITY 1.000000

RULE WW-147_4
IF NODE WW-147 DEPTH > 13.000000
THEN PUMP PMP1-147 STATUS = ON
PRIORITY 1.000000

RULE WW-220_1
IF NODE WW-220 DEPTH > 15.000000
THEN PUMP PMP2-220 STATUS = ON
PRIORITY 1.000000

RULE WW-220_2
IF NODE WW-220 DEPTH > 10.000000
THEN PUMP PMP1-220 STATUS = ON
PRIORITY 1.000000

RULE WW-220_3
IF NODE WW-220 DEPTH <= 4.400000
THEN PUMP PMP1-220 STATUS = OFF
PRIORITY 2.000000

RULE WW-220_4
IF NODE WW-220 DEPTH <= 4.400000
THEN PUMP PMP2-220 STATUS = OFF
PRIORITY 2.000000

RULE WW-221_1
IF NODE WW-221 DEPTH > 13.100000
THEN PUMP PMP2-221 STATUS = ON
PRIORITY 1.000000

RULE WW-221_2
IF NODE WW-221 DEPTH <= 2.900000
THEN PUMP PMP2-221 STATUS = OFF
PRIORITY 2.000000

RULE WW-221_3
IF NODE WW-221 DEPTH > 13.100000
THEN PUMP PMP1-221 STATUS = ON
PRIORITY 1.000000

RULE WW-221_4
IF NODE WW-221 DEPTH <= 2.900000
THEN PUMP PMP1-221 STATUS = OFF
PRIORITY 2.000000

RULE WW-222_1
IF NODE WW-222 DEPTH <= 3.000000
THEN PUMP PMP2-222 STATUS = OFF
PRIORITY 2.000000

RULE WW-222_2
IF NODE WW-222 DEPTH <= 3.000000
THEN PUMP PMP1-222 STATUS = OFF
PRIORITY 2.000000

RULE WW-222_3
IF NODE WW-222 DEPTH > 9.500000
THEN PUMP PMP1-222 STATUS = ON
PRIORITY 1.000000

RULE WW-222_4
IF NODE WW-222 DEPTH > 9.500000
THEN PUMP PMP2-222 STATUS = ON
PRIORITY 1.000000

RULE WW-223_1
IF NODE WW-223 DEPTH <= 2.700000
THEN PUMP PMP2-223 STATUS = OFF
PRIORITY 2.000000

RULE WW-223_2
IF NODE WW-223 DEPTH > 9.500000
THEN PUMP PMP2-223 STATUS = ON
PRIORITY 1.000000

RULE WW-223_3
IF NODE WW-223 DEPTH <= 2.700000
THEN PUMP PMP1-223 STATUS = OFF
PRIORITY 2.000000

RULE WW-223_4
IF NODE WW-223 DEPTH > 10.000000
THEN PUMP PMP1-223 STATUS = ON
PRIORITY 1.000000

RULE WW-224_1
IF NODE WW-224 DEPTH <= 0.500000
THEN PUMP PMP1-224 STATUS = OFF
PRIORITY 2.000000

RULE WW-224_2
IF NODE WW-224 DEPTH > 3.500000
THEN PUMP PMP2-224 STATUS = ON
PRIORITY 1.000000

RULE WW-224_3
IF NODE WW-224 DEPTH > 4.000000
THEN PUMP PMP1-224 STATUS = ON
PRIORITY 1.000000

RULE WW-224_4
IF NODE WW-224 DEPTH <= 0.500000
THEN PUMP PMP2-224 STATUS = OFF
PRIORITY 2.000000

RULE WW-225_1
IF NODE WW-225 DEPTH > 14.500000
THEN PUMP PMP2-225 STATUS = ON
PRIORITY 1.000000

RULE WW-225_2
IF NODE WW-225 DEPTH <= 5.500000
THEN PUMP PMP2-225 STATUS = OFF
PRIORITY 2.000000

RULE WW-225_3
IF NODE WW-225 DEPTH > 15.000000
THEN PUMP PMP1-225 STATUS = ON
PRIORITY 1.000000

RULE WW-225_4
IF NODE WW-225 DEPTH <= 5.500000
THEN PUMP PMP1-225 STATUS = OFF
PRIORITY 2.000000

RULE WW-226_1
IF NODE WW-226 DEPTH > 6.000000
THEN PUMP PMP2-226 STATUS = ON
PRIORITY 1.000000

RULE WW-226_2
IF NODE WW-226 DEPTH <= 0.500000
THEN PUMP PMP2-226 STATUS = OFF
PRIORITY 2.000000

RULE WW-226_3
IF NODE WW-226 DEPTH > 5.000000
THEN PUMP PMP1-226 STATUS = ON
PRIORITY 1.000000

RULE WW-226_4
IF NODE WW-226 DEPTH <= 0.500000
THEN PUMP PMP1-226 STATUS = OFF
PRIORITY 2.000000

RULE WW-227_1
IF NODE WW-227 DEPTH > 9.100000
THEN PUMP PMP1-227 STATUS = ON
PRIORITY 1.000000

RULE WW-227_2
IF NODE WW-227 DEPTH <= 3.600000
THEN PUMP PMP2-227 STATUS = OFF
PRIORITY 2.000000

RULE WW-227_3
IF NODE WW-227 DEPTH <= 3.600000
THEN PUMP PMP1-227 STATUS = OFF
PRIORITY 2.000000

RULE WW-227_4
IF NODE WW-227 DEPTH > 9.100000
THEN PUMP PMP2-227 STATUS = ON
PRIORITY 1.000000

RULE WW-228_1
IF NODE WW-228 DEPTH > 12.000000
THEN PUMP PMP2-228 STATUS = ON
PRIORITY 1.000000

RULE WW-228_2
IF NODE WW-228 DEPTH <= 2.000000
THEN PUMP PMP1-228 STATUS = OFF
PRIORITY 2.000000

RULE WW-228_3
IF NODE WW-228 DEPTH <= 2.000000
THEN PUMP PMP2-228 STATUS = OFF
PRIORITY 2.000000

RULE WW-228_4
IF NODE WW-228 DEPTH > 8.000000
THEN PUMP PMP1-228 STATUS = ON
PRIORITY 1.000000

RULE WW-229_1
IF NODE WW-229 DEPTH > 8.000000
THEN PUMP PMP2-229 STATUS = ON
PRIORITY 1.000000

RULE WW-229_2
IF NODE WW-229 DEPTH > 7.500000
THEN PUMP PMP1-229 STATUS = ON
PRIORITY 1.000000

RULE WW-229_3
IF NODE WW-229 DEPTH <= 0.500000
THEN PUMP PMP2-229 STATUS = OFF
PRIORITY 2.000000

RULE WW-229_4
IF NODE WW-229 DEPTH <= 0.500000
THEN PUMP PMP1-229 STATUS = OFF
PRIORITY 2.000000

RULE WW-230_1
IF NODE WW-230 DEPTH <= 5.500000
THEN PUMP PMP1-230 STATUS = OFF
PRIORITY 2.000000

RULE WW-230_2
IF NODE WW-230 DEPTH > 10.000000
THEN PUMP PMP1-230 STATUS = ON
PRIORITY 1.000000

RULE WW-230_3
IF NODE WW-230 DEPTH > 9.000000
THEN PUMP PMP2-230 STATUS = ON
PRIORITY 1.000000

RULE WW-230_4
IF NODE WW-230 DEPTH <= 5.500000
THEN PUMP PMP2-230 STATUS = OFF
PRIORITY 2.000000

RULE WW-231_1
IF NODE WW-231 DEPTH <= 3.100000
THEN PUMP PMP2-231 STATUS = OFF
PRIORITY 2.000000

RULE WW-231_2
IF NODE WW-231 DEPTH > 11.000000
THEN PUMP PMP2-231 STATUS = ON
PRIORITY 1.000000

RULE WW-231_3
IF NODE WW-231 DEPTH > 11.000000
THEN PUMP PMP1-231 STATUS = ON
PRIORITY 1.000000

RULE WW-231_4
IF NODE WW-231 DEPTH <= 3.100000
THEN PUMP PMP1-231 STATUS = OFF
PRIORITY 2.000000

RULE WW-232_1
IF NODE WW-232 DEPTH <= 2.900000
THEN PUMP PMP2-232 STATUS = OFF
PRIORITY 2.000000

RULE WW-232_2
IF NODE WW-232 DEPTH > 11.500000
THEN PUMP PMP1-232 STATUS = ON
PRIORITY 1.000000

RULE WW-232_3
IF NODE WW-232 DEPTH > 11.500000
THEN PUMP PMP2-232 STATUS = ON
PRIORITY 1.000000

RULE WW-232_4
IF NODE WW-232 DEPTH <= 2.900000
THEN PUMP PMP1-232 STATUS = OFF
PRIORITY 2.000000

RULE WW-242_1
IF NODE WW-242 DEPTH > 12.800000
THEN PUMP PMP1-242 STATUS = ON
PRIORITY 1.000000

RULE WW-242_2
IF NODE WW-242 DEPTH <= 4.500000
THEN PUMP PMP1-242 STATUS = OFF
PRIORITY 2.000000

RULE WW-242_3
IF NODE WW-242 DEPTH <= 4.500000
THEN PUMP PMP2-242 STATUS = OFF
PRIORITY 2.000000

RULE WW-242_4
IF NODE WW-242 DEPTH > 12.800000
THEN PUMP PMP2-242 STATUS = ON
PRIORITY 1.000000

RULE WW-243_1
IF NODE WW-243 DEPTH > 14.000000
THEN PUMP PMP1-243 STATUS = ON
PRIORITY 1.000000

RULE WW-243_2
IF NODE WW-243 DEPTH <= 3.000000
THEN PUMP PMP2-243 STATUS = OFF
PRIORITY 2.000000

RULE WW-243_3
IF NODE WW-243 DEPTH <= 3.000000
THEN PUMP PMP1-243 STATUS = OFF
PRIORITY 2.000000

RULE WW-243_4
IF NODE WW-243 DEPTH > 13.500000
THEN PUMP PMP2-243 STATUS = ON
PRIORITY 1.000000

RULE WW-246_1
IF NODE WW-246 DEPTH > 10.000000
THEN PUMP PMP2-246 STATUS = ON
PRIORITY 1.000000

RULE WW-246_2
IF NODE WW-246 DEPTH <= 0.500000
THEN PUMP PMP2-246 STATUS = OFF
PRIORITY 2.000000

RULE WW-246_3
IF NODE WW-246 DEPTH <= 0.500000
THEN PUMP PMP1-246 STATUS = OFF
PRIORITY 2.000000

RULE WW-246_4
IF NODE WW-246 DEPTH > 12.000000
THEN PUMP PMP1-246 STATUS = ON
PRIORITY 1.000000

RULE WW-247_1
IF NODE WW-247 DEPTH > 14.000000
THEN PUMP PMP2-247 STATUS = ON
PRIORITY 1.000000

RULE WW-247_2
IF NODE WW-247 DEPTH > 13.000000
THEN PUMP PMP1-247 STATUS = ON
PRIORITY 1.000000

RULE WW-247_3
IF NODE WW-247 DEPTH <= 2.000000
THEN PUMP PMP2-247 STATUS = OFF
PRIORITY 2.000000

RULE WW-247_4
IF NODE WW-247 DEPTH <= 2.000000
THEN PUMP PMP1-247 STATUS = OFF
PRIORITY 2.000000

RULE WW-250_1
IF NODE WW-250 DEPTH > 13.200000
THEN PUMP PMP2-250 STATUS = ON
PRIORITY 1.000000

RULE WW-250_2
IF NODE WW-250 DEPTH <= 2.700000
THEN PUMP PMP2-250 STATUS = ON
PRIORITY 2.000000

RULE WW-250_3
IF NODE WW-250 DEPTH > 13.200000
THEN PUMP PMP1-250 STATUS = ON
PRIORITY 1.000000

RULE WW-250_4
IF NODE WW-250 DEPTH <= 2.700000
THEN PUMP PMP1-250 STATUS = ON
PRIORITY 2.000000

RULE WW-251_1
IF NODE WW-251 DEPTH <= 3.600000
THEN PUMP PMP2-251 STATUS = OFF
PRIORITY 2.000000

RULE WW-251_2
IF NODE WW-251 DEPTH > 14.500000
THEN PUMP PMP2-251 STATUS = ON
PRIORITY 1.000000

RULE WW-251_3
IF NODE WW-251 DEPTH > 10.000000
THEN PUMP PMP1-251 STATUS = ON
PRIORITY 1.000000

RULE WW-251_4
IF NODE WW-251 DEPTH <= 3.600000
THEN PUMP PMP1-251 STATUS = OFF
PRIORITY 2.000000


[POLLUTANTS]

[LANDUSES]

[COVERAGES]

[BUILDUP]

[WASHOFF]

[TREATMENT]

[INFLOWS]
MH_824_36	FLOW	""	FLOW  1.0	1.000000

[DWF]
MH_813_1	FLOW	0.013389	"DIURNAL"	""	""	""
MH_813_2	FLOW	0.055020	"DIURNAL"	""	""	""
MH_813_3	FLOW	0.036851	"DIURNAL"	""	""	""
MH_824_1	FLOW	0.123918	"DIURNAL"	""	""	""
MH_824_10	FLOW	0.065539	"DIURNAL"	""	""	""
MH_824_100	FLOW	0.001207	"DIURNAL"	""	""	""
MH_824_101	FLOW	0.001569	"DIURNAL"	""	""	""
MH_824_102	FLOW	0.003687	"DIURNAL"	""	""	""
MH_824_103	FLOW	0.014709	"DIURNAL"	""	""	""
MH_824_104	FLOW	0.007372	"DIURNAL"	""	""	""
MH_824_106	FLOW	0.032071	"DIURNAL"	""	""	""
MH_824_107	FLOW	0.046211	"DIURNAL"	""	""	""
MH_824_108	FLOW	0.014183	"DIURNAL"	""	""	""
MH_824_109	FLOW	0.004463	"DIURNAL"	""	""	""
MH_824_11	FLOW	0.172987	"DIURNAL"	""	""	""
MH_824_110	FLOW	0.014770	"DIURNAL"	""	""	""
MH_824_111	FLOW	0.019546	"DIURNAL"	""	""	""
MH_824_112	FLOW	0.023068	"DIURNAL"	""	""	""
MH_824_113	FLOW	0.003978	"DIURNAL"	""	""	""
MH_824_114	FLOW	0.111436	"DIURNAL"	""	""	""
MH_824_115	FLOW	0.003400	"DIURNAL"	""	""	""
MH_824_116	FLOW	0.091872	"DIURNAL"	""	""	""
MH_824_117	FLOW	0.012189	"DIURNAL"	""	""	""
MH_824_118	FLOW	0.094331	"DIURNAL"	""	""	""
MH_824_119	FLOW	0.099866	"DIURNAL"	""	""	""
MH_824_12	FLOW	0.032247	"DIURNAL"	""	""	""
MH_824_120	FLOW	0.003968	"DIURNAL"	""	""	""
MH_824_121	FLOW	0.069724	"DIURNAL"	""	""	""
MH_824_122	FLOW	0.057532	"DIURNAL"	""	""	""
MH_824_123	FLOW	0.014921	"DIURNAL"	""	""	""
MH_824_124	FLOW	0.028054	"DIURNAL"	""	""	""
MH_824_125	FLOW	0.000985	"DIURNAL"	""	""	""
MH_824_126	FLOW	0.116977	"DIURNAL"	""	""	""
MH_824_127	FLOW	0.014480	"DIURNAL"	""	""	""
MH_824_128	FLOW	0.176379	"DIURNAL"	""	""	""
MH_824_129	FLOW	0.011597	"DIURNAL"	""	""	""
MH_824_13	FLOW	0.003030	"DIURNAL"	""	""	""
MH_824_130	FLOW	0.006471	"DIURNAL"	""	""	""
MH_824_131	FLOW	0.022409	"DIURNAL"	""	""	""
MH_824_132	FLOW	0.155105	"DIURNAL"	""	""	""
MH_824_133	FLOW	0.139539	"DIURNAL"	""	""	""
MH_824_134	FLOW	0.054023	"DIURNAL"	""	""	""
MH_824_135	FLOW	0.090923	"DIURNAL"	""	""	""
MH_824_136	FLOW	0.118122	"DIURNAL"	""	""	""
MH_824_137	FLOW	0.066632	"DIURNAL"	""	""	""
MH_824_138	FLOW	0.001566	"DIURNAL"	""	""	""
MH_824_139	FLOW	0.057268	"DIURNAL"	""	""	""
MH_824_14	FLOW	0.114689	"DIURNAL"	""	""	""
MH_824_140	FLOW	0.095130	"DIURNAL"	""	""	""
MH_824_141	FLOW	0.133602	"DIURNAL"	""	""	""
MH_824_142	FLOW	0.113664	"DIURNAL"	""	""	""
MH_824_143	FLOW	0.000483	"DIURNAL"	""	""	""
MH_824_144	FLOW	0.001927	"DIURNAL"	""	""	""
MH_824_145	FLOW	0.020117	"DIURNAL"	""	""	""
MH_824_146	FLOW	0.117455	"DIURNAL"	""	""	""
MH_824_147	FLOW	0.020389	"DIURNAL"	""	""	""
MH_824_148	FLOW	0.015287	"DIURNAL"	""	""	""
MH_824_149	FLOW	0.151920	"DIURNAL"	""	""	""
MH_824_15	FLOW	0.061167	"DIURNAL"	""	""	""
MH_824_150	FLOW	0.129732	"DIURNAL"	""	""	""
MH_824_151	FLOW	0.105083	"DIURNAL"	""	""	""
MH_824_152	FLOW	0.000510	"COMMERCIAL"	""	""	""
MH_824_153	FLOW	0.416123	"DIURNAL"	""	""	""
MH_824_154	FLOW	0.095670	"DIURNAL"	""	""	""
MH_824_155	FLOW	0.041328	"DIURNAL"	""	""	""
MH_824_156	FLOW	0.047675	"DIURNAL"	""	""	""
MH_824_157	FLOW	0.064178	"DIURNAL"	""	""	""
MH_824_158	FLOW	0.051993	"DIURNAL"	""	""	""
MH_824_159	FLOW	0.165050	"DIURNAL"	""	""	""
MH_824_16	FLOW	0.059566	"DIURNAL"	""	""	""
MH_824_161	FLOW	0.027111	"DIURNAL"	""	""	""
MH_824_162	FLOW	0.052050	"DIURNAL"	""	""	""
MH_824_163	FLOW	0.046141	"DIURNAL"	""	""	""
MH_824_164	FLOW	0.009269	"DIURNAL"	""	""	""
MH_824_17	FLOW	0.086287	"DIURNAL"	""	""	""
MH_824_18	FLOW	0.077924	"DIURNAL"	""	""	""
MH_824_19	FLOW	0.000244	"DIURNAL"	""	""	""
MH_824_2	FLOW	0.045930	"DIURNAL"	""	""	""
MH_824_20	FLOW	0.000225	"DIURNAL"	""	""	""
MH_824_21	FLOW	0.022150	"DIURNAL"	""	""	""
MH_824_22	FLOW	0.020210	"DIURNAL"	""	""	""
MH_824_23	FLOW	0.014496	"DIURNAL"	""	""	""
MH_824_24	FLOW	0.014059	"DIURNAL"	""	""	""
MH_824_25	FLOW	0.014958	"DIURNAL"	""	""	""
MH_824_26	FLOW	0.015408	"DIURNAL"	""	""	""
MH_824_27	FLOW	0.000517	"DIURNAL"	""	""	""
MH_824_28	FLOW	0.011461	"DIURNAL"	""	""	""
MH_824_29	FLOW	0.010861	"DIURNAL"	""	""	""
MH_824_3	FLOW	0.087313	"DIURNAL"	""	""	""
MH_824_30	FLOW	0.000049	"DIURNAL"	""	""	""
MH_824_31	FLOW	0.032916	"DIURNAL"	""	""	""
MH_824_32	FLOW	0.001082	"DIURNAL"	""	""	""
MH_824_33	FLOW	0.012347	"DIURNAL"	""	""	""
MH_824_34	FLOW	0.000296	"DIURNAL"	""	""	""
MH_824_35	FLOW	0.003090	"DIURNAL"	""	""	""
MH_824_36	FLOW	0.000063	"DIURNAL"	""	""	""
MH_824_37	FLOW	0.002542	"DIURNAL"	""	""	""
MH_824_38	FLOW	0.001015	"DIURNAL"	""	""	""
MH_824_39	FLOW	0.020921	"DIURNAL"	""	""	""
MH_824_4	FLOW	0.149655	"DIURNAL"	""	""	""
MH_824_40	FLOW	0.021965	"DIURNAL"	""	""	""
MH_824_41	FLOW	0.009437	"DIURNAL"	""	""	""
MH_824_42	FLOW	0.009562	"DIURNAL"	""	""	""
MH_824_43	FLOW	0.005072	"DIURNAL"	""	""	""
MH_824_44	FLOW	0.000151	"DIURNAL"	""	""	""
MH_824_45	FLOW	0.004701	"DIURNAL"	""	""	""
MH_824_46	FLOW	0.026235	"DIURNAL"	""	""	""
MH_824_47	FLOW	0.001156	"DIURNAL"	""	""	""
MH_824_48	FLOW	0.024433	"DIURNAL"	""	""	""
MH_824_49	FLOW	0.037747	"DIURNAL"	""	""	""
MH_824_5	FLOW	0.055625	"DIURNAL"	""	""	""
MH_824_50	FLOW	0.000702	"DIURNAL"	""	""	""
MH_824_52	FLOW	0.000917	"DIURNAL"	""	""	""
MH_824_53	FLOW	0.007566	"DIURNAL"	""	""	""
MH_824_54	FLOW	0.000004	"DIURNAL"	""	""	""
MH_824_55	FLOW	0.001748	"DIURNAL"	""	""	""
MH_824_56	FLOW	0.000996	"DIURNAL"	""	""	""
MH_824_57	FLOW	0.008814	"DIURNAL"	""	""	""
MH_824_58	FLOW	0.015099	"DIURNAL"	""	""	""
MH_824_59	FLOW	0.012625	"DIURNAL"	""	""	""
MH_824_6	FLOW	0.060176	"DIURNAL"	""	""	""
MH_824_60	FLOW	0.014875	"DIURNAL"	""	""	""
MH_824_61	FLOW	0.050143	"DIURNAL"	""	""	""
MH_824_62	FLOW	0.238128	"DIURNAL"	""	""	""
MH_824_63	FLOW	0.135706	"DIURNAL"	""	""	""
MH_824_64	FLOW	0.017107	"DIURNAL"	""	""	""
MH_824_65	FLOW	0.004552	"DIURNAL"	""	""	""
MH_824_66	FLOW	0.001566	"DIURNAL"	""	""	""
MH_824_67	FLOW	0.295819	"DIURNAL"	""	""	""
MH_824_68	FLOW	0.005275	"DIURNAL"	""	""	""
MH_824_69	FLOW	0.000834	"DIURNAL"	""	""	""
MH_824_7	FLOW	0.065920	"DIURNAL"	""	""	""
MH_824_70	FLOW	0.245432	"DIURNAL"	""	""	""
MH_824_71	FLOW	0.033042	"DIURNAL"	""	""	""
MH_824_72	FLOW	0.051911	"DIURNAL"	""	""	""
MH_824_73	FLOW	0.012761	"DIURNAL"	""	""	""
MH_824_74	FLOW	0.039277	"DIURNAL"	""	""	""
MH_824_75	FLOW	0.013321	"DIURNAL"	""	""	""
MH_824_76	FLOW	0.010731	"DIURNAL"	""	""	""
MH_824_77	FLOW	0.057568	"DIURNAL"	""	""	""
MH_824_78	FLOW	0.009146	"DIURNAL"	""	""	""
MH_824_79	FLOW	0.026268	"DIURNAL"	""	""	""
MH_824_8	FLOW	0.045803	"DIURNAL"	""	""	""
MH_824_80	FLOW	0.022795	"DIURNAL"	""	""	""
MH_824_81	FLOW	0.007904	"DIURNAL"	""	""	""
MH_824_82	FLOW	0.010272	"DIURNAL"	""	""	""
MH_824_83	FLOW	0.008696	"DIURNAL"	""	""	""
MH_824_84	FLOW	0.006285	"DIURNAL"	""	""	""
MH_824_85	FLOW	0.010964	"DIURNAL"	""	""	""
MH_824_86	FLOW	0.006494	"DIURNAL"	""	""	""
MH_824_87	FLOW	0.002651	"DIURNAL"	""	""	""
MH_824_88	FLOW	0.008538	"DIURNAL"	""	""	""
MH_824_89	FLOW	0.002439	"DIURNAL"	""	""	""
MH_824_9	FLOW	0.070199	"DIURNAL"	""	""	""
MH_824_90	FLOW	0.012064	"DIURNAL"	""	""	""
MH_824_91	FLOW	0.017010	"DIURNAL"	""	""	""
MH_824_92	FLOW	0.020855	"DIURNAL"	""	""	""
MH_824_93	FLOW	0.040068	"DIURNAL"	""	""	""
MH_824_94	FLOW	0.011536	"DIURNAL"	""	""	""
MH_824_95	FLOW	0.019910	"DIURNAL"	""	""	""
MH_824_96	FLOW	0.090842	"DIURNAL"	""	""	""
MH_824_97	FLOW	0.015586	"DIURNAL"	""	""	""
MH_824_98	FLOW	0.009573	"DIURNAL"	""	""	""
MH_824_99	FLOW	0.104166	"DIURNAL"	""	""	""
MH_825_10	FLOW	0.059498	"DIURNAL"	""	""	""
MH_825_11	FLOW	0.038408	"DIURNAL"	""	""	""
MH_825_12	FLOW	0.014378	"DIURNAL"	""	""	""
MH_825_13	FLOW	0.133157	"DIURNAL"	""	""	""
MH_825_14	FLOW	0.060028	"DIURNAL"	""	""	""
MH_825_2	FLOW	0.006071	"DIURNAL"	""	""	""
MH_825_3	FLOW	0.035883	"DIURNAL"	""	""	""
MH_825_4	FLOW	0.002960	"DIURNAL"	""	""	""
MH_825_5	FLOW	0.062940	"DIURNAL"	""	""	""
MH_825_6	FLOW	0.092197	"DIURNAL"	""	""	""
MH_825_7	FLOW	0.020876	"DIURNAL"	""	""	""
MH_825_8	FLOW	0.059199	"DIURNAL"	""	""	""
MH_825_9	FLOW	0.037718	"DIURNAL"	""	""	""
MH_919_1	FLOW	0.012487	"DIURNAL"	""	""	""
MH_919_10	FLOW	0.006271	"DIURNAL"	""	""	""
MH_919_100	FLOW	0.132199	"DIURNAL"	""	""	""
MH_919_101	FLOW	0.127980	"DIURNAL"	""	""	""
MH_919_102	FLOW	0.104797	"DIURNAL"	""	""	""
MH_919_103	FLOW	0.178991	"DIURNAL"	""	""	""
MH_919_104	FLOW	0.048446	"DIURNAL"	""	""	""
MH_919_105	FLOW	0.222426	"DIURNAL"	""	""	""
MH_919_106	FLOW	0.111561	"DIURNAL"	""	""	""
MH_919_107	FLOW	0.112814	"DIURNAL"	""	""	""
MH_919_108	FLOW	0.053807	"DIURNAL"	""	""	""
MH_919_109	FLOW	0.007723	"DIURNAL"	""	""	""
MH_919_11	FLOW	0.158964	"DIURNAL"	""	""	""
MH_919_110	FLOW	0.071672	"DIURNAL"	""	""	""
MH_919_111	FLOW	0.083566	"DIURNAL"	""	""	""
MH_919_112	FLOW	0.160678	"DIURNAL"	""	""	""
MH_919_113	FLOW	0.063371	"DIURNAL"	""	""	""
MH_919_114	FLOW	0.117484	"DIURNAL"	""	""	""
MH_919_115	FLOW	0.088469	"DIURNAL"	""	""	""
MH_919_116	FLOW	0.096318	"DIURNAL"	""	""	""
MH_919_117	FLOW	0.098164	"DIURNAL"	""	""	""
MH_919_118	FLOW	0.100965	"DIURNAL"	""	""	""
MH_919_119	FLOW	0.091091	"DIURNAL"	""	""	""
MH_919_12	FLOW	0.164526	"DIURNAL"	""	""	""
MH_919_120	FLOW	0.021902	"DIURNAL"	""	""	""
MH_919_121	FLOW	0.064846	"DIURNAL"	""	""	""
MH_919_122	FLOW	0.033978	"DIURNAL"	""	""	""
MH_919_123	FLOW	0.107428	"DIURNAL"	""	""	""
MH_919_124	FLOW	0.066910	"DIURNAL"	""	""	""
MH_919_125	FLOW	0.049501	"DIURNAL"	""	""	""
MH_919_126	FLOW	0.128977	"DIURNAL"	""	""	""
MH_919_127	FLOW	0.037717	"DIURNAL"	""	""	""
MH_919_128	FLOW	0.156868	"DIURNAL"	""	""	""
MH_919_129	FLOW	0.098776	"DIURNAL"	""	""	""
MH_919_13	FLOW	0.189574	"DIURNAL"	""	""	""
MH_919_130	FLOW	0.142906	"DIURNAL"	""	""	""
MH_919_131	FLOW	0.040911	"DIURNAL"	""	""	""
MH_919_132	FLOW	0.037684	"DIURNAL"	""	""	""
MH_919_133	FLOW	0.072051	"DIURNAL"	""	""	""
MH_919_134	FLOW	0.071915	"DIURNAL"	""	""	""
MH_919_135	FLOW	0.066257	"DIURNAL"	""	""	""
MH_919_136	FLOW	0.132873	"DIURNAL"	""	""	""
MH_919_137	FLOW	0.045828	"DIURNAL"	""	""	""
MH_919_138	FLOW	0.091277	"DIURNAL"	""	""	""
MH_919_139	FLOW	0.103853	"DIURNAL"	""	""	""
MH_919_14	FLOW	0.180031	"DIURNAL"	""	""	""
MH_919_140	FLOW	0.041502	"DIURNAL"	""	""	""
MH_919_141	FLOW	0.010708	"DIURNAL"	""	""	""
MH_919_142	FLOW	0.146243	"DIURNAL"	""	""	""
MH_919_143	FLOW	0.143241	"DIURNAL"	""	""	""
MH_919_144	FLOW	0.118650	"DIURNAL"	""	""	""
MH_919_145	FLOW	0.135537	"DIURNAL"	""	""	""
MH_919_146	FLOW	0.035472	"DIURNAL"	""	""	""
MH_919_147	FLOW	0.097771	"DIURNAL"	""	""	""
MH_919_148	FLOW	0.106209	"DIURNAL"	""	""	""
MH_919_149	FLOW	0.066727	"DIURNAL"	""	""	""
MH_919_15	FLOW	0.156573	"DIURNAL"	""	""	""
MH_919_150	FLOW	0.172257	"DIURNAL"	""	""	""
MH_919_151	FLOW	0.105277	"DIURNAL"	""	""	""
MH_919_152	FLOW	0.034808	"DIURNAL"	""	""	""
MH_919_153	FLOW	0.061519	"DIURNAL"	""	""	""
MH_919_154	FLOW	0.006326	"DIURNAL"	""	""	""
MH_919_155	FLOW	0.154139	"DIURNAL"	""	""	""
MH_919_156	FLOW	0.037298	"DIURNAL"	""	""	""
MH_919_157	FLOW	0.122604	"DIURNAL"	""	""	""
MH_919_158	FLOW	0.011469	"DIURNAL"	""	""	""
MH_919_159	FLOW	0.191097	"DIURNAL"	""	""	""
MH_919_16	FLOW	0.216357	"DIURNAL"	""	""	""
MH_919_160	FLOW	0.027616	"DIURNAL"	""	""	""
MH_919_161	FLOW	0.017952	"DIURNAL"	""	""	""
MH_919_162	FLOW	0.012453	"DIURNAL"	""	""	""
MH_919_163	FLOW	0.054770	"DIURNAL"	""	""	""
MH_919_164	FLOW	0.184416	"DIURNAL"	""	""	""
MH_919_165	FLOW	0.123746	"DIURNAL"	""	""	""
MH_919_166	FLOW	0.134110	"DIURNAL"	""	""	""
MH_919_167	FLOW	0.049649	"DIURNAL"	""	""	""
MH_919_168	FLOW	0.077659	"DIURNAL"	""	""	""
MH_919_169	FLOW	0.098928	"DIURNAL"	""	""	""
MH_919_17	FLOW	0.104258	"DIURNAL"	""	""	""
MH_919_170	FLOW	0.032687	"DIURNAL"	""	""	""
MH_919_171	FLOW	0.114409	"DIURNAL"	""	""	""
MH_919_172	FLOW	0.059850	"DIURNAL"	""	""	""
MH_919_173	FLOW	0.071879	"DIURNAL"	""	""	""
MH_919_174	FLOW	0.047942	"DIURNAL"	""	""	""
MH_919_175	FLOW	0.097344	"DIURNAL"	""	""	""
MH_919_176	FLOW	0.000038	"DIURNAL"	""	""	""
MH_919_177	FLOW	0.160049	"DIURNAL"	""	""	""
MH_919_178	FLOW	0.062708	"DIURNAL"	""	""	""
MH_919_179	FLOW	0.028164	"DIURNAL"	""	""	""
MH_919_18	FLOW	0.060746	"DIURNAL"	""	""	""
MH_919_180	FLOW	0.062353	"DIURNAL"	""	""	""
MH_919_181	FLOW	0.012595	"DIURNAL"	""	""	""
MH_919_182	FLOW	0.075697	"DIURNAL"	""	""	""
MH_919_183	FLOW	0.044041	"DIURNAL"	""	""	""
MH_919_184	FLOW	0.009058	"DIURNAL"	""	""	""
MH_919_185	FLOW	0.104973	"DIURNAL"	""	""	""
MH_919_186	FLOW	0.021562	"DIURNAL"	""	""	""
MH_919_187	FLOW	0.044981	"DIURNAL"	""	""	""
MH_919_188	FLOW	0.058333	"DIURNAL"	""	""	""
MH_919_189	FLOW	0.002468	"DIURNAL"	""	""	""
MH_919_19	FLOW	0.053979	"DIURNAL"	""	""	""
MH_919_190	FLOW	0.042231	"DIURNAL"	""	""	""
MH_919_191	FLOW	0.019205	"DIURNAL"	""	""	""
MH_919_192	FLOW	0.043013	"DIURNAL"	""	""	""
MH_919_193	FLOW	0.046857	"DIURNAL"	""	""	""
MH_919_194	FLOW	0.054448	"DIURNAL"	""	""	""
MH_919_195	FLOW	0.048801	"DIURNAL"	""	""	""
MH_919_196	FLOW	0.142645	"DIURNAL"	""	""	""
MH_919_197	FLOW	0.125117	"DIURNAL"	""	""	""
MH_919_198	FLOW	0.088969	"DIURNAL"	""	""	""
MH_919_199	FLOW	0.146804	"DIURNAL"	""	""	""
MH_919_20	FLOW	0.272551	"DIURNAL"	""	""	""
MH_919_200	FLOW	0.164346	"DIURNAL"	""	""	""
MH_919_201	FLOW	0.105644	"DIURNAL"	""	""	""
MH_919_202	FLOW	0.119169	"DIURNAL"	""	""	""
MH_919_203	FLOW	0.117646	"DIURNAL"	""	""	""
MH_919_204	FLOW	0.039979	"DIURNAL"	""	""	""
MH_919_205	FLOW	0.012239	"DIURNAL"	""	""	""
MH_919_206	FLOW	0.218825	"DIURNAL"	""	""	""
MH_919_207	FLOW	0.002477	"DIURNAL"	""	""	""
MH_919_208	FLOW	0.086852	"DIURNAL"	""	""	""
MH_919_209	FLOW	0.001427	"DIURNAL"	""	""	""
MH_919_21	FLOW	0.133310	"DIURNAL"	""	""	""
MH_919_210	FLOW	0.043611	"DIURNAL"	""	""	""
MH_919_211	FLOW	0.004847	"DIURNAL"	""	""	""
MH_919_212	FLOW	0.193757	"DIURNAL"	""	""	""
MH_919_213	FLOW	0.083204	"DIURNAL"	""	""	""
MH_919_214	FLOW	0.000842	"DIURNAL"	""	""	""
MH_919_215	FLOW	0.254492	"DIURNAL"	""	""	""
MH_919_216	FLOW	0.132200	"DIURNAL"	""	""	""
MH_919_217	FLOW	0.140479	"DIURNAL"	""	""	""
MH_919_218	FLOW	0.046293	"DIURNAL"	""	""	""
MH_919_219	FLOW	0.179365	"DIURNAL"	""	""	""
MH_919_22	FLOW	0.129864	"DIURNAL"	""	""	""
MH_919_220	FLOW	0.034652	"DIURNAL"	""	""	""
MH_919_221	FLOW	0.033280	"DIURNAL"	""	""	""
MH_919_222	FLOW	0.070774	"DIURNAL"	""	""	""
MH_919_223	FLOW	0.134230	"DIURNAL"	""	""	""
MH_919_224	FLOW	0.150784	"DIURNAL"	""	""	""
MH_919_225	FLOW	0.136832	"DIURNAL"	""	""	""
MH_919_226	FLOW	0.001193	"DIURNAL"	""	""	""
MH_919_227	FLOW	0.218576	"DIURNAL"	""	""	""
MH_919_228	FLOW	0.003913	"DIURNAL"	""	""	""
MH_919_229	FLOW	0.015938	"DIURNAL"	""	""	""
MH_919_23	FLOW	0.010316	"DIURNAL"	""	""	""
MH_919_230	FLOW	0.041337	"DIURNAL"	""	""	""
MH_919_231	FLOW	0.037143	"DIURNAL"	""	""	""
MH_919_232	FLOW	0.002463	"DIURNAL"	""	""	""
MH_919_233	FLOW	0.144290	"DIURNAL"	""	""	""
MH_919_234	FLOW	0.199311	"DIURNAL"	""	""	""
MH_919_24	FLOW	0.098919	"DIURNAL"	""	""	""
MH_919_25	FLOW	0.092219	"DIURNAL"	""	""	""
MH_919_26	FLOW	0.194378	"DIURNAL"	""	""	""
MH_919_27	FLOW	0.028990	"DIURNAL"	""	""	""
MH_919_28	FLOW	0.032991	"DIURNAL"	""	""	""
MH_919_29	FLOW	0.184887	"DIURNAL"	""	""	""
MH_919_3	FLOW	0.017116	"DIURNAL"	""	""	""
MH_919_30	FLOW	0.087700	"DIURNAL"	""	""	""
MH_919_31	FLOW	0.214271	"DIURNAL"	""	""	""
MH_919_32	FLOW	0.227890	"DIURNAL"	""	""	""
MH_919_33	FLOW	0.100246	"DIURNAL"	""	""	""
MH_919_34	FLOW	0.069772	"DIURNAL"	""	""	""
MH_919_35	FLOW	0.100122	"DIURNAL"	""	""	""
MH_919_36	FLOW	0.058516	"DIURNAL"	""	""	""
MH_919_37	FLOW	0.111653	"DIURNAL"	""	""	""
MH_919_38	FLOW	0.085634	"DIURNAL"	""	""	""
MH_919_39	FLOW	0.033703	"DIURNAL"	""	""	""
MH_919_4	FLOW	0.211352	"DIURNAL"	""	""	""
MH_919_40	FLOW	0.111888	"DIURNAL"	""	""	""
MH_919_41	FLOW	0.123843	"DIURNAL"	""	""	""
MH_919_42	FLOW	0.105219	"DIURNAL"	""	""	""
MH_919_43	FLOW	0.079068	"DIURNAL"	""	""	""
MH_919_44	FLOW	0.102779	"DIURNAL"	""	""	""
MH_919_45	FLOW	0.233075	"DIURNAL"	""	""	""
MH_919_46	FLOW	0.176092	"DIURNAL"	""	""	""
MH_919_47	FLOW	0.057592	"DIURNAL"	""	""	""
MH_919_48	FLOW	0.045800	"DIURNAL"	""	""	""
MH_919_49	FLOW	0.110917	"DIURNAL"	""	""	""
MH_919_5	FLOW	0.043871	"DIURNAL"	""	""	""
MH_919_50	FLOW	0.077431	"DIURNAL"	""	""	""
MH_919_51	FLOW	0.071987	"DIURNAL"	""	""	""
MH_919_52	FLOW	0.126927	"DIURNAL"	""	""	""
MH_919_53	FLOW	0.089721	"DIURNAL"	""	""	""
MH_919_54	FLOW	0.175381	"DIURNAL"	""	""	""
MH_919_55	FLOW	0.148080	"DIURNAL"	""	""	""
MH_919_56	FLOW	0.045375	"DIURNAL"	""	""	""
MH_919_57	FLOW	0.258561	"DIURNAL"	""	""	""
MH_919_58	FLOW	0.133386	"DIURNAL"	""	""	""
MH_919_59	FLOW	0.097274	"DIURNAL"	""	""	""
MH_919_6	FLOW	0.162789	"DIURNAL"	""	""	""
MH_919_61	FLOW	0.003913	"DIURNAL"	""	""	""
MH_919_63	FLOW	0.049637	"DIURNAL"	""	""	""
MH_919_64	FLOW	0.018977	"DIURNAL"	""	""	""
MH_919_65	FLOW	0.095017	"DIURNAL"	""	""	""
MH_919_66	FLOW	0.145444	"DIURNAL"	""	""	""
MH_919_67	FLOW	0.151029	"DIURNAL"	""	""	""
MH_919_68	FLOW	0.113061	"DIURNAL"	""	""	""
MH_919_69	FLOW	0.126344	"DIURNAL"	""	""	""
MH_919_7	FLOW	0.020204	"DIURNAL"	""	""	""
MH_919_70	FLOW	0.137918	"DIURNAL"	""	""	""
MH_919_71	FLOW	0.053315	"DIURNAL"	""	""	""
MH_919_72	FLOW	0.108671	"DIURNAL"	""	""	""
MH_919_73	FLOW	0.241242	"DIURNAL"	""	""	""
MH_919_74	FLOW	0.074674	"DIURNAL"	""	""	""
MH_919_75	FLOW	0.088778	"DIURNAL"	""	""	""
MH_919_76	FLOW	0.062613	"DIURNAL"	""	""	""
MH_919_77	FLOW	0.062715	"DIURNAL"	""	""	""
MH_919_78	FLOW	0.131189	"DIURNAL"	""	""	""
MH_919_79	FLOW	0.218824	"DIURNAL"	""	""	""
MH_919_8	FLOW	0.196383	"DIURNAL"	""	""	""
MH_919_80	FLOW	0.149746	"DIURNAL"	""	""	""
MH_919_81	FLOW	0.129842	"DIURNAL"	""	""	""
MH_919_82	FLOW	0.144008	"DIURNAL"	""	""	""
MH_919_83	FLOW	0.069179	"DIURNAL"	""	""	""
MH_919_84	FLOW	0.116309	"DIURNAL"	""	""	""
MH_919_85	FLOW	0.131991	"DIURNAL"	""	""	""
MH_919_86	FLOW	0.077016	"DIURNAL"	""	""	""
MH_919_87	FLOW	0.188076	"DIURNAL"	""	""	""
MH_919_88	FLOW	0.358621	"DIURNAL"	""	""	""
MH_919_89	FLOW	0.194184	"DIURNAL"	""	""	""
MH_919_90	FLOW	0.058442	"DIURNAL"	""	""	""
MH_919_91	FLOW	0.078720	"DIURNAL"	""	""	""
MH_919_92	FLOW	0.168757	"DIURNAL"	""	""	""
MH_919_93	FLOW	0.175769	"DIURNAL"	""	""	""
MH_919_94	FLOW	0.106552	"DIURNAL"	""	""	""
MH_919_95	FLOW	0.164439	"DIURNAL"	""	""	""
MH_919_96	FLOW	0.102296	"DIURNAL"	""	""	""
MH_919_97	FLOW	0.117712	"DIURNAL"	""	""	""
MH_919_98	FLOW	0.120863	"DIURNAL"	""	""	""
MH_919_99	FLOW	0.071519	"DIURNAL"	""	""	""
MH_920_1	FLOW	0.036044	"DIURNAL"	""	""	""
MH_920_10	FLOW	0.082230	"DIURNAL"	""	""	""
MH_920_11	FLOW	0.140660	"DIURNAL"	""	""	""
MH_920_12	FLOW	0.175022	"DIURNAL"	""	""	""
MH_920_13	FLOW	0.162643	"DIURNAL"	""	""	""
MH_920_14	FLOW	0.051616	"DIURNAL"	""	""	""
MH_920_15	FLOW	0.100956	"DIURNAL"	""	""	""
MH_920_16	FLOW	0.098493	"DIURNAL"	""	""	""
MH_920_17	FLOW	0.113564	"DIURNAL"	""	""	""
MH_920_18	FLOW	0.114346	"DIURNAL"	""	""	""
MH_920_19	FLOW	0.028713	"DIURNAL"	""	""	""
MH_920_2	FLOW	0.043235	"DIURNAL"	""	""	""
MH_920_20	FLOW	0.045592	"DIURNAL"	""	""	""
MH_920_21	FLOW	0.017392	"DIURNAL"	""	""	""
MH_920_22	FLOW	0.151683	"DIURNAL"	""	""	""
MH_920_23	FLOW	0.155837	"DIURNAL"	""	""	""
MH_920_24	FLOW	0.049212	"DIURNAL"	""	""	""
MH_920_25	FLOW	0.107934	"DIURNAL"	""	""	""
MH_920_26	FLOW	0.134028	"DIURNAL"	""	""	""
MH_920_27	FLOW	0.152640	"DIURNAL"	""	""	""
MH_920_28	FLOW	0.271490	"DIURNAL"	""	""	""
MH_920_29	FLOW	0.074278	"DIURNAL"	""	""	""
MH_920_3	FLOW	0.159226	"DIURNAL"	""	""	""
MH_920_30	FLOW	0.149149	"DIURNAL"	""	""	""
MH_920_31	FLOW	0.159715	"DIURNAL"	""	""	""
MH_920_32	FLOW	0.145942	"DIURNAL"	""	""	""
MH_920_33	FLOW	0.095023	"DIURNAL"	""	""	""
MH_920_34	FLOW	0.089104	"DIURNAL"	""	""	""
MH_920_35	FLOW	0.000784	"DIURNAL"	""	""	""
MH_920_36	FLOW	0.178023	"DIURNAL"	""	""	""
MH_920_37	FLOW	0.035019	"DIURNAL"	""	""	""
MH_920_38	FLOW	0.062892	"DIURNAL"	""	""	""
MH_920_39	FLOW	0.027476	"DIURNAL"	""	""	""
MH_920_4	FLOW	0.190128	"DIURNAL"	""	""	""
MH_920_40	FLOW	0.134943	"DIURNAL"	""	""	""
MH_920_41	FLOW	0.141231	"DIURNAL"	""	""	""
MH_920_42	FLOW	0.135875	"DIURNAL"	""	""	""
MH_920_43	FLOW	0.124578	"DIURNAL"	""	""	""
MH_920_44	FLOW	0.225614	"DIURNAL"	""	""	""
MH_920_45	FLOW	0.192188	"DIURNAL"	""	""	""
MH_920_46	FLOW	0.012642	"DIURNAL"	""	""	""
MH_920_47	FLOW	0.023018	"DIURNAL"	""	""	""
MH_920_48	FLOW	0.043454	"DIURNAL"	""	""	""
MH_920_49	FLOW	0.134123	"DIURNAL"	""	""	""
MH_920_5	FLOW	0.234381	"DIURNAL"	""	""	""
MH_920_50	FLOW	0.002987	"DIURNAL"	""	""	""
MH_920_52	FLOW	0.072883	"DIURNAL"	""	""	""
MH_920_53	FLOW	0.050437	"DIURNAL"	""	""	""
MH_920_54	FLOW	0.197628	"DIURNAL"	""	""	""
MH_920_55	FLOW	0.079704	"DIURNAL"	""	""	""
MH_920_57	FLOW	0.087046	"DIURNAL"	""	""	""
MH_920_58	FLOW	0.091804	"DIURNAL"	""	""	""
MH_920_59	FLOW	0.079843	"DIURNAL"	""	""	""
MH_920_6	FLOW	0.038349	"DIURNAL"	""	""	""
MH_920_60	FLOW	0.025061	"DIURNAL"	""	""	""
MH_920_61	FLOW	0.023135	"DIURNAL"	""	""	""
MH_920_62	FLOW	0.122503	"DIURNAL"	""	""	""
MH_920_63	FLOW	0.049046	"DIURNAL"	""	""	""
MH_920_64	FLOW	0.108076	"DIURNAL"	""	""	""
MH_920_65	FLOW	0.048341	"DIURNAL"	""	""	""
MH_920_66	FLOW	0.107943	"DIURNAL"	""	""	""
MH_920_7	FLOW	0.208886	"DIURNAL"	""	""	""
MH_920_8	FLOW	0.028167	"DIURNAL"	""	""	""
MH_920_9	FLOW	0.017253	"DIURNAL"	""	""	""
MH_928_105	FLOW	0.014695	"DIURNAL"	""	""	""
MH_928_107	FLOW	0.419155	"DIURNAL"	""	""	""
MH_928_118	FLOW	0.078552	"DIURNAL"	""	""	""
MH_928_13	FLOW	0.130105	"DIURNAL"	""	""	""
MH_928_18	FLOW	0.066398	"DIURNAL"	""	""	""
MH_928_27	FLOW	0.217717	"DIURNAL"	""	""	""
MH_928_28	FLOW	0.000747	""	""	""	""
MH_928_36	FLOW	0.278349	"DIURNAL"	""	""	""
MH_928_43	FLOW	0.317825	"DIURNAL"	""	""	""
MH_928_47	FLOW	0.117285	"DIURNAL"	""	""	""
MH_928_49	FLOW	0.013453	"DIURNAL"	""	""	""
MH_928_50	FLOW	0.116173	"DIURNAL"	""	""	""
MH_928_53	FLOW	0.006281	"DIURNAL"	""	""	""
MH_928_58	FLOW	0.068920	"DIURNAL"	""	""	""
MH_928_6	FLOW	0.026052	"DIURNAL"	""	""	""
MH_928_65	FLOW	0.199330	"DIURNAL"	""	""	""
MH_928_66	FLOW	0.121439	"DIURNAL"	""	""	""
MH_928_67	FLOW	0.144965	"DIURNAL"	""	""	""
MH_928_69	FLOW	0.062039	"DIURNAL"	""	""	""
MH_928_76	FLOW	0.040249	"DIURNAL"	""	""	""
MH_928_81	FLOW	0.005171	"DIURNAL"	""	""	""
MH_928_86	FLOW	0.730781	"DIURNAL"	""	""	""
MH_928_87	FLOW	0.162404	"DIURNAL"	""	""	""
MH_928_88	FLOW	0.209461	"DIURNAL"	""	""	""
MH_928_89	FLOW	0.009271	"DIURNAL"	""	""	""
MH_928_90	FLOW	0.022148	"DIURNAL"	""	""	""
MH_928_91	FLOW	0.074750	"DIURNAL"	""	""	""
MH_928_92	FLOW	0.154219	"DIURNAL"	""	""	""
MH_928_98	FLOW	0.145655	"DIURNAL"	""	""	""
MH_929_1	FLOW	0.036622	"DIURNAL"	""	""	""
MH_929_10	FLOW	0.007409	"DIURNAL"	""	""	""
MH_929_100	FLOW	0.201379	"DIURNAL"	""	""	""
MH_929_101	FLOW	0.249066	"DIURNAL"	""	""	""
MH_929_102	FLOW	0.234130	"DIURNAL"	""	""	""
MH_929_103	FLOW	0.101399	"DIURNAL"	""	""	""
MH_929_104	FLOW	0.116268	"DIURNAL"	""	""	""
MH_929_105	FLOW	0.061977	"DIURNAL"	""	""	""
MH_929_106	FLOW	0.014684	"DIURNAL"	""	""	""
MH_929_107	FLOW	0.039448	"DIURNAL"	""	""	""
MH_929_108	FLOW	0.101239	"DIURNAL"	""	""	""
MH_929_109	FLOW	0.174269	"DIURNAL"	""	""	""
MH_929_11	FLOW	0.026479	"DIURNAL"	""	""	""
MH_929_110	FLOW	0.122499	"DIURNAL"	""	""	""
MH_929_111	FLOW	0.078997	"DIURNAL"	""	""	""
MH_929_112	FLOW	0.130229	"DIURNAL"	""	""	""
MH_929_114	FLOW	0.071561	"DIURNAL"	""	""	""
MH_929_115	FLOW	0.169136	"DIURNAL"	""	""	""
MH_929_116	FLOW	0.138773	"DIURNAL"	""	""	""
MH_929_118	FLOW	0.057433	"DIURNAL"	""	""	""
MH_929_119	FLOW	0.122016	"DIURNAL"	""	""	""
MH_929_12	FLOW	0.080472	"DIURNAL"	""	""	""
MH_929_120	FLOW	0.066477	"DIURNAL"	""	""	""
MH_929_121	FLOW	0.018247	"DIURNAL"	""	""	""
MH_929_122	FLOW	0.054611	"DIURNAL"	""	""	""
MH_929_123	FLOW	0.002425	"DIURNAL"	""	""	""
MH_929_124	FLOW	0.171206	"DIURNAL"	""	""	""
MH_929_125	FLOW	0.219747	"DIURNAL"	""	""	""
MH_929_126	FLOW	0.000075	"DIURNAL"	""	""	""
MH_929_128	FLOW	0.000632	""	""	""	""
MH_929_13	FLOW	0.134342	"DIURNAL"	""	""	""
MH_929_130	FLOW	0.107037	"DIURNAL"	""	""	""
MH_929_131	FLOW	0.022094	"DIURNAL"	""	""	""
MH_929_132	FLOW	0.006225	"COMMERCIAL"	""	""	""
MH_929_133	FLOW	0.083836	"DIURNAL"	""	""	""
MH_929_134	FLOW	0.252053	"DIURNAL"	""	""	""
MH_929_135	FLOW	0.203494	"DIURNAL"	""	""	""
MH_929_136	FLOW	0.165443	"DIURNAL"	""	""	""
MH_929_137	FLOW	0.240776	"DIURNAL"	""	""	""
MH_929_138	FLOW	0.054322	"DIURNAL"	""	""	""
MH_929_14	FLOW	0.122449	"DIURNAL"	""	""	""
MH_929_140	FLOW	0.008044	""	""	""	""
MH_929_142	FLOW	0.076856	"DIURNAL"	""	""	""
MH_929_143	FLOW	0.040499	"DIURNAL"	""	""	""
MH_929_144	FLOW	0.131362	"DIURNAL"	""	""	""
MH_929_145	FLOW	0.115967	"DIURNAL"	""	""	""
MH_929_146	FLOW	0.101446	"DIURNAL"	""	""	""
MH_929_147	FLOW	0.078665	"DIURNAL"	""	""	""
MH_929_148	FLOW	0.149154	"DIURNAL"	""	""	""
MH_929_149	FLOW	0.004285	""	""	""	""
MH_929_15	FLOW	0.002195	"DIURNAL"	""	""	""
MH_929_150	FLOW	0.111772	"DIURNAL"	""	""	""
MH_929_151	FLOW	0.172751	"DIURNAL"	""	""	""
MH_929_152	FLOW	0.632669	"DIURNAL"	""	""	""
MH_929_153	FLOW	0.003569	""	""	""	""
MH_929_154	FLOW	0.167237	"DIURNAL"	""	""	""
MH_929_158	FLOW	0.003039	""	""	""	""
MH_929_16	FLOW	0.032171	"DIURNAL"	""	""	""
MH_929_161	FLOW	0.001029	""	""	""	""
MH_929_162	FLOW	0.028021	"DIURNAL"	""	""	""
MH_929_164	FLOW	0.119499	"DIURNAL"	""	""	""
MH_929_165	FLOW	0.161630	"DIURNAL"	""	""	""
MH_929_166	FLOW	0.128222	"DIURNAL"	""	""	""
MH_929_167	FLOW	0.078180	"DIURNAL"	""	""	""
MH_929_168	FLOW	0.004447	""	""	""	""
MH_929_169	FLOW	0.098772	"DIURNAL"	""	""	""
MH_929_17	FLOW	0.214260	"DIURNAL"	""	""	""
MH_929_171	FLOW	0.000004	""	""	""	""
MH_929_174	FLOW	0.016174	"DIURNAL"	""	""	""
MH_929_175	FLOW	0.003050	""	""	""	""
MH_929_176	FLOW	0.038554	"DIURNAL"	""	""	""
MH_929_177	FLOW	0.274502	"DIURNAL"	""	""	""
MH_929_18	FLOW	0.004814	"COMMERCIAL"	"WEEKDAY"	""	""
MH_929_180	FLOW	0.086899	"DIURNAL"	""	""	""
MH_929_181	FLOW	0.097171	"DIURNAL"	""	""	""
MH_929_182	FLOW	0.043517	"DIURNAL"	""	""	""
MH_929_184	FLOW	0.097635	"DIURNAL"	""	""	""
MH_929_188	FLOW	0.102406	"DIURNAL"	""	""	""
MH_929_19	FLOW	0.095884	"DIURNAL"	""	""	""
MH_929_190	FLOW	0.105201	"DIURNAL"	""	""	""
MH_929_196	FLOW	0.015244	"DIURNAL"	""	""	""
MH_929_198	FLOW	0.042999	"DIURNAL"	""	""	""
MH_929_199	FLOW	0.010318	"DIURNAL"	""	""	""
MH_929_2	FLOW	0.004136	"DIURNAL"	""	""	""
MH_929_20	FLOW	0.006365	"DIURNAL"	""	""	""
MH_929_201	FLOW	0.010805	"DIURNAL"	""	""	""
MH_929_204	FLOW	0.113330	"DIURNAL"	""	""	""
MH_929_205	FLOW	0.047900	"DIURNAL"	""	""	""
MH_929_206	FLOW	0.025513	"DIURNAL"	""	""	""
MH_929_207	FLOW	0.031316	"DIURNAL"	""	""	""
MH_929_209	FLOW	0.026984	"DIURNAL"	""	""	""
MH_929_21	FLOW	0.050169	"DIURNAL"	""	""	""
MH_929_211	FLOW	0.117156	"DIURNAL"	""	""	""
MH_929_212	FLOW	0.069759	"DIURNAL"	""	""	""
MH_929_213	FLOW	0.068337	"DIURNAL"	""	""	""
MH_929_214	FLOW	0.078882	"DIURNAL"	""	""	""
MH_929_217	FLOW	0.047490	"DIURNAL"	""	""	""
MH_929_218	FLOW	0.526036	"DIURNAL"	""	""	""
MH_929_22	FLOW	0.000248	"DIURNAL"	""	""	""
MH_929_221	FLOW	0.064218	"DIURNAL"	""	""	""
MH_929_223	FLOW	0.094190	"DIURNAL"	""	""	""
MH_929_224	FLOW	0.643695	"DIURNAL"	""	""	""
MH_929_226	FLOW	0.232099	"DIURNAL"	""	""	""
MH_929_227	FLOW	0.128010	"DIURNAL"	""	""	""
MH_929_23	FLOW	0.020675	"DIURNAL"	""	""	""
MH_929_230	FLOW	0.012744	"DIURNAL"	""	""	""
MH_929_239	FLOW	0.008532	"DIURNAL"	""	""	""
MH_929_24	FLOW	0.149571	"DIURNAL"	""	""	""
MH_929_240	FLOW	0.022738	"DIURNAL"	""	""	""
MH_929_25	FLOW	0.001558	"DIURNAL"	""	""	""
MH_929_26	FLOW	0.162308	"DIURNAL"	""	""	""
MH_929_27	FLOW	0.000007	"DIURNAL"	""	""	""
MH_929_28	FLOW	0.100364	"DIURNAL"	""	""	""
MH_929_29	FLOW	0.103833	"DIURNAL"	""	""	""
MH_929_3	FLOW	0.137787	"DIURNAL"	""	""	""
MH_929_30	FLOW	0.107282	"DIURNAL"	""	""	""
MH_929_32	FLOW	0.003109	"DIURNAL"	""	""	""
MH_929_33	FLOW	0.000232	"DIURNAL"	""	""	""
MH_929_34	FLOW	0.093245	"DIURNAL"	""	""	""
MH_929_35	FLOW	0.002415	"DIURNAL"	""	""	""
MH_929_36	FLOW	0.082273	"DIURNAL"	""	""	""
MH_929_37	FLOW	0.100017	"DIURNAL"	""	""	""
MH_929_38	FLOW	0.115918	"DIURNAL"	""	""	""
MH_929_39	FLOW	0.061510	"DIURNAL"	""	""	""
MH_929_4	FLOW	0.000952	"DIURNAL"	""	""	""
MH_929_40	FLOW	0.410225	"DIURNAL"	""	""	""
MH_929_46	FLOW	0.155557	"DIURNAL"	""	""	""
MH_929_47	FLOW	0.002314	"DIURNAL"	""	""	""
MH_929_48	FLOW	0.001590	""	""	""	""
MH_929_49	FLOW	0.007118	"DIURNAL"	""	""	""
MH_929_5	FLOW	0.094391	"DIURNAL"	""	""	""
MH_929_50	FLOW	0.185401	"DIURNAL"	""	""	""
MH_929_51	FLOW	0.082973	"DIURNAL"	""	""	""
MH_929_52	FLOW	0.159792	"DIURNAL"	""	""	""
MH_929_53	FLOW	0.182335	"DIURNAL"	""	""	""
MH_929_56	FLOW	0.017235	"DIURNAL"	""	""	""
MH_929_57	FLOW	0.083392	"DIURNAL"	""	""	""
MH_929_58	FLOW	0.020744	"DIURNAL"	""	""	""
MH_929_59	FLOW	0.086468	"DIURNAL"	""	""	""
MH_929_6	FLOW	0.038104	"DIURNAL"	""	""	""
MH_929_63	FLOW	0.182665	"DIURNAL"	""	""	""
MH_929_64	FLOW	0.086946	"DIURNAL"	""	""	""
MH_929_65	FLOW	0.185428	"DIURNAL"	""	""	""
MH_929_66	FLOW	0.143933	"DIURNAL"	""	""	""
MH_929_67	FLOW	0.149001	"DIURNAL"	""	""	""
MH_929_68	FLOW	0.038045	"DIURNAL"	""	""	""
MH_929_69	FLOW	0.054297	"DIURNAL"	""	""	""
MH_929_7	FLOW	0.106823	"DIURNAL"	""	""	""
MH_929_70	FLOW	0.134508	"DIURNAL"	""	""	""
MH_929_71	FLOW	0.155022	"DIURNAL"	""	""	""
MH_929_72	FLOW	0.004233	"DIURNAL"	""	""	""
MH_929_73	FLOW	0.127044	"DIURNAL"	""	""	""
MH_929_74	FLOW	0.123983	"DIURNAL"	""	""	""
MH_929_75	FLOW	0.200618	"DIURNAL"	""	""	""
MH_929_77	FLOW	0.097465	"DIURNAL"	""	""	""
MH_929_78	FLOW	0.077237	"DIURNAL"	""	""	""
MH_929_8	FLOW	0.051795	"DIURNAL"	""	""	""
MH_929_81	FLOW	0.135029	"DIURNAL"	""	""	""
MH_929_82	FLOW	0.091750	"DIURNAL"	""	""	""
MH_929_84	FLOW	0.107820	"DIURNAL"	""	""	""
MH_929_85	FLOW	0.192241	"DIURNAL"	""	""	""
MH_929_86	FLOW	0.189834	"DIURNAL"	""	""	""
MH_929_87	FLOW	0.153180	"DIURNAL"	""	""	""
MH_929_88	FLOW	0.034478	"DIURNAL"	""	""	""
MH_929_89	FLOW	0.148080	"DIURNAL"	""	""	""
MH_929_9	FLOW	0.076024	"DIURNAL"	""	""	""
MH_929_90	FLOW	0.113839	"DIURNAL"	""	""	""
MH_929_91	FLOW	0.136513	"DIURNAL"	""	""	""
MH_929_92	FLOW	0.072132	"DIURNAL"	""	""	""
MH_929_93	FLOW	0.067375	"DIURNAL"	""	""	""
MH_929_99	FLOW	0.028787	"COMMERCIAL"	""	""	""
MH_930_1	FLOW	0.073169	"DIURNAL"	""	""	""
MH_930_100	FLOW	1.209458	"DIURNAL"	""	""	""
MH_930_102	FLOW	0.107667	"DIURNAL"	""	""	""
MH_930_103	FLOW	0.160664	"DIURNAL"	""	""	""
MH_930_104	FLOW	0.793726	"DIURNAL"	""	""	""
MH_930_105	FLOW	0.792212	"DIURNAL"	""	""	""
MH_930_106	FLOW	0.058494	"DIURNAL"	""	""	""
MH_930_107	FLOW	0.208818	"DIURNAL"	""	""	""
MH_930_108	FLOW	0.199284	"DIURNAL"	""	""	""
MH_930_109	FLOW	0.177777	"DIURNAL"	""	""	""
MH_930_110	FLOW	0.249731	"DIURNAL"	""	""	""
MH_930_111	FLOW	0.079008	"DIURNAL"	""	""	""
MH_930_112	FLOW	0.267438	"DIURNAL"	""	""	""
MH_930_113	FLOW	0.120348	"DIURNAL"	""	""	""
MH_930_114	FLOW	0.201633	"DIURNAL"	""	""	""
MH_930_115	FLOW	0.324891	"DIURNAL"	""	""	""
MH_930_116	FLOW	0.110210	"DIURNAL"	""	""	""
MH_930_117	FLOW	0.204454	"DIURNAL"	""	""	""
MH_930_118	FLOW	0.222045	"DIURNAL"	""	""	""
MH_930_119	FLOW	0.082673	"DIURNAL"	""	""	""
MH_930_120	FLOW	0.080492	"DIURNAL"	""	""	""
MH_930_121	FLOW	0.153907	"DIURNAL"	""	""	""
MH_930_122	FLOW	0.000977	""	""	""	""
MH_930_123	FLOW	0.203872	"DIURNAL"	""	""	""
MH_930_124	FLOW	0.107466	"DIURNAL"	""	""	""
MH_930_125	FLOW	0.057531	"DIURNAL"	""	""	""
MH_930_126	FLOW	0.140743	"DIURNAL"	""	""	""
MH_930_127	FLOW	0.002713	"DIURNAL"	""	""	""
MH_930_128	FLOW	0.208194	"DIURNAL"	""	""	""
MH_930_129	FLOW	0.114730	"DIURNAL"	""	""	""
MH_930_130	FLOW	0.169960	"DIURNAL"	""	""	""
MH_930_131	FLOW	0.040294	"DIURNAL"	""	""	""
MH_930_132	FLOW	0.056201	"DIURNAL"	""	""	""
MH_930_133	FLOW	0.070391	"DIURNAL"	""	""	""
MH_930_134	FLOW	0.039189	"DIURNAL"	""	""	""
MH_930_135	FLOW	0.073975	"DIURNAL"	""	""	""
MH_930_136	FLOW	0.190049	"DIURNAL"	""	""	""
MH_930_137	FLOW	0.224834	"DIURNAL"	""	""	""
MH_930_138	FLOW	0.005189	"DIURNAL"	""	""	""
MH_930_139	FLOW	0.160231	"DIURNAL"	""	""	""
MH_930_140	FLOW	0.091614	"DIURNAL"	""	""	""
MH_930_141	FLOW	0.083970	"DIURNAL"	""	""	""
MH_930_142	FLOW	0.058733	"DIURNAL"	""	""	""
MH_930_143	FLOW	0.033967	"DIURNAL"	""	""	""
MH_930_144	FLOW	0.168725	"DIURNAL"	""	""	""
MH_930_145	FLOW	0.104541	"DIURNAL"	""	""	""
MH_930_146	FLOW	0.178284	"DIURNAL"	""	""	""
MH_930_147	FLOW	0.131325	"DIURNAL"	""	""	""
MH_930_148	FLOW	0.193220	"DIURNAL"	""	""	""
MH_930_149	FLOW	0.044562	"DIURNAL"	""	""	""
MH_930_150	FLOW	0.049606	"DIURNAL"	""	""	""
MH_930_151	FLOW	0.048752	"DIURNAL"	""	""	""
MH_930_152	FLOW	0.118533	"DIURNAL"	""	""	""
MH_930_153	FLOW	0.132385	"DIURNAL"	""	""	""
MH_930_154	FLOW	0.114612	"DIURNAL"	""	""	""
MH_930_155	FLOW	0.031696	"DIURNAL"	""	""	""
MH_930_156	FLOW	0.124810	"DIURNAL"	""	""	""
MH_930_157	FLOW	0.063240	"DIURNAL"	""	""	""
MH_930_158	FLOW	0.077363	"DIURNAL"	""	""	""
MH_930_159	FLOW	0.213083	"DIURNAL"	""	""	""
MH_930_160	FLOW	0.216402	"DIURNAL"	""	""	""
MH_930_161	FLOW	0.177833	"DIURNAL"	""	""	""
MH_930_162	FLOW	0.065860	"DIURNAL"	""	""	""
MH_930_163	FLOW	0.058123	"DIURNAL"	""	""	""
MH_930_164	FLOW	0.093174	"DIURNAL"	""	""	""
MH_930_165	FLOW	0.053712	"DIURNAL"	""	""	""
MH_930_166	FLOW	0.078362	"DIURNAL"	""	""	""
MH_930_167	FLOW	0.025905	"DIURNAL"	""	""	""
MH_930_168	FLOW	0.078204	"DIURNAL"	""	""	""
MH_930_169	FLOW	0.011835	"DIURNAL"	""	""	""
MH_930_170	FLOW	0.217417	"DIURNAL"	""	""	""
MH_930_171	FLOW	0.086550	"DIURNAL"	""	""	""
MH_930_172	FLOW	0.073176	"DIURNAL"	""	""	""
MH_930_173	FLOW	0.237919	"DIURNAL"	""	""	""
MH_930_174	FLOW	0.171911	"DIURNAL"	""	""	""
MH_930_175	FLOW	0.007700	"DIURNAL"	""	""	""
MH_930_176	FLOW	0.059301	"DIURNAL"	""	""	""
MH_930_177	FLOW	0.086338	"DIURNAL"	""	""	""
MH_930_178	FLOW	0.097508	"DIURNAL"	""	""	""
MH_930_179	FLOW	0.015634	"DIURNAL"	""	""	""
MH_930_2	FLOW	0.036707	"DIURNAL"	""	""	""
MH_930_3	FLOW	0.062809	"DIURNAL"	""	""	""
MH_930_4	FLOW	0.035752	"DIURNAL"	""	""	""
MH_930_46	FLOW	0.481367	"DIURNAL"	""	""	""
MH_930_47	FLOW	0.000018	"DIURNAL"	""	""	""
MH_930_48	FLOW	0.003065	"DIURNAL"	""	""	""
MH_930_5	FLOW	0.033436	"DIURNAL"	""	""	""
MH_930_6	FLOW	0.043868	"DIURNAL"	""	""	""
MH_930_96	FLOW	0.253546	"DIURNAL"	""	""	""
MH_930_97	FLOW	0.662944	"DIURNAL"	""	""	""
MH_930_98	FLOW	0.307723	"DIURNAL"	""	""	""
MH_930_99	FLOW	0.065209	"DIURNAL"	""	""	""

[RDII]

[LOADINGS]

[CURVES]
;   Pump Curve
CURVE_1	PUMP3	0.000000	17437.700000
CURVE_1	9.355000	7153.200000
CURVE_1	13.673000	2433.100000
CURVE_1	15.946000	0.000000
;   Pump Curve
CURVE_10	PUMP3	0.000000	4163.700000
CURVE_10	64.470000	1903.340000
CURVE_10	105.500000	542.100000
CURVE_10	125.400000	0.000000
;   Pump Curve
CURVE_100	PUMP3	0.000000	150.100000
CURVE_100	87.800000	80.050000
CURVE_100	132.530000	31.960000
CURVE_100	142.850000	0.000000
;   Pump Curve
CURVE_101	PUMP3	0.000000	121.100000
CURVE_101	28.110000	106.180000
CURVE_101	131.540000	40.750000
CURVE_101	166.010000	0.000000
;   Pump Curve
CURVE_102	PUMP3	0.000000	335.600000
CURVE_102	1.000000	319.040000
CURVE_102	11.920000	119.970000
CURVE_102	16.580000	0.000000
;   Pump Curve
CURVE_103	PUMP3	0.000000	424.900000
CURVE_103	5.170000	309.830000
CURVE_103	13.640000	119.430000
CURVE_103	18.750000	0.000000
;   Pump Curve
CURVE_104	PUMP3	0.000000	327.000000
CURVE_104	0.190000	324.840000
CURVE_104	15.770000	93.610000
CURVE_104	18.110000	0.000000
;   Pump Curve
CURVE_105	PUMP3	0.000000	443.800000
CURVE_105	10.010000	297.690000
CURVE_105	23.230000	93.160000
CURVE_105	28.130000	0.000000
;   Pump Curve
CURVE_106	PUMP3	0.000000	316.800000
CURVE_106	13.510000	254.100000
CURVE_106	46.010000	78.870000
CURVE_106	54.740000	0.000000
;   Pump Curve
CURVE_107	PUMP3	0.000000	19.500000
CURVE_107	16.150000	15.000000
CURVE_107	52.390000	4.800000
CURVE_107	65.990000	0.000000
;   Pump Curve
CURVE_108	PUMP3	0.000000	293.100000
CURVE_108	0.400000	286.220000
CURVE_108	10.450000	97.660000
CURVE_108	14.200000	0.000000
;   Pump Curve
CURVE_109	PUMP3	0.000000	25.190550
CURVE_109	1.000000	25.065225
CURVE_109	133.330000	8.356725
CURVE_109	200.000000	0.000000
;   Pump Curve
CURVE_11	PUMP3	0.000000	2589.300000
CURVE_11	32.050000	1743.070000
CURVE_11	69.250000	759.460000
CURVE_11	97.810000	0.000000
;   Pump Curve
CURVE_110	PUMP3	0.000000	393.900000
CURVE_110	7.550000	272.800000
CURVE_110	18.130000	80.290000
CURVE_110	20.990000	0.000000
;   Pump Curve
CURVE_111	PUMP3	0.000000	230.100000
CURVE_111	0.630000	227.460000
CURVE_111	26.500000	101.010000
CURVE_111	38.590000	0.000000
;   Pump Curve
CURVE_112	PUMP3	0.000000	257.600000
CURVE_112	12.580000	205.930000
CURVE_112	46.450000	57.520000
CURVE_112	56.940000	0.000000
;   Pump Curve
CURVE_113	PUMP3	0.000000	260.100000
CURVE_113	6.240000	219.430000
CURVE_113	25.930000	83.810000
CURVE_113	35.790000	0.000000
;   Pump Curve
CURVE_114	PUMP3	0.000000	263.900000
CURVE_114	10.000000	262.630000
CURVE_114	33.340000	188.000000
CURVE_114	40.020000	15.000000
;   Pump Curve
CURVE_115	PUMP3	0.000000	410.200000
CURVE_115	6.830000	228.810000
CURVE_115	11.770000	83.760000
CURVE_115	13.750000	0.000000
;   Pump Curve
CURVE_116	PUMP3	0.000000	291.600000
CURVE_116	4.090000	221.770000
CURVE_116	11.730000	90.320000
CURVE_116	16.820000	0.000000
;   Pump Curve
CURVE_117	PUMP3	0.000000	247.700000
CURVE_117	1.000000	224.160000
CURVE_117	7.190000	69.740000
CURVE_117	9.470000	0.000000
;   Pump Curve
CURVE_118	PUMP3	0.000000	228.700000
CURVE_118	26.270000	131.910000
CURVE_118	47.860000	43.200000
CURVE_118	56.030000	0.000000
;   Pump Curve
CURVE_119	PUMP3	0.000000	69.100000
CURVE_119	29.200000	55.250000
CURVE_119	91.030000	17.210000
CURVE_119	102.480000	0.000000
;   Pump Curve
CURVE_12	PUMP4	0.000000	2035.700000
CURVE_12	6.000000	1863.740000
CURVE_12	57.400000	507.710000
CURVE_12	83.270000	0.000000
;   Pump Curve
CURVE_120	PUMP3	0.000000	49.000000
CURVE_120	14.830000	43.630000
CURVE_120	74.740000	17.250000
CURVE_120	94.580000	0.000000
;   Pump Curve
CURVE_121	PUMP3	0.000000	163.100000
CURVE_121	4.460000	139.060000
CURVE_121	20.270000	43.710000
CURVE_121	25.140000	0.000000
;   Pump Curve
CURVE_122	PUMP3	0.000000	39.300000
CURVE_122	1.080000	39.140000
CURVE_122	80.830000	17.150000
CURVE_122	94.210000	0.000000
;   Pump Curve
CURVE_123	PUMP3	0.000000	15.400000
CURVE_123	4.270000	13.260000
CURVE_123	19.590000	3.600000
CURVE_123	22.140000	0.000000
;   Pump Curve
CURVE_13	PUMP3	0.000000	1775.800000
CURVE_13	9.120000	1654.260000
CURVE_13	87.520000	594.920000
CURVE_13	129.360000	0.000000
;   Pump Curve
CURVE_14	PUMP3	0.000000	3859.000000
CURVE_14	60.060000	1663.490000
CURVE_14	93.140000	500.380000
CURVE_14	109.510000	0.000000
;   Pump Curve
CURVE_15	PUMP3	0.000000	1377.200000
CURVE_15	0.500000	1371.160000
CURVE_15	54.910000	532.420000
CURVE_15	69.130000	0.000000
;   Pump Curve
CURVE_16	PUMP3	0.000000	2080.000000
CURVE_16	45.490000	1226.050000
CURVE_16	89.020000	413.350000
CURVE_16	111.600000	0.000000
;   Pump Curve
CURVE_17	PUMP3	0.000000	534.150000
CURVE_17	45.800000	305.357500
CURVE_17	87.430000	102.722500
CURVE_17	110.660000	0.000000
;   Pump Curve
CURVE_18	PUMP3	0.000000	1625.100000
CURVE_18	7.230000	1397.310000
CURVE_18	45.660000	352.870000
CURVE_18	67.710000	0.000000
;   Pump Curve
CURVE_19	PUMP3	0.000000	2091.300000
CURVE_19	16.660000	1206.830000
CURVE_19	31.410000	507.810000
CURVE_19	49.070000	0.000000
;   Pump Curve
CURVE_2	PUMP3	0.000000	12476.000000
CURVE_2	73.150000	6147.420000
CURVE_2	126.240000	1910.900000
CURVE_2	158.520000	0.000000
;   Pump Curve
CURVE_20	PUMP3	0.000000	1901.400000
CURVE_20	62.320000	1082.540000
CURVE_20	103.370000	436.380000
CURVE_20	117.710000	0.000000
;   Pump Curve
CURVE_21	PUMP3	0.000000	1352.500000
CURVE_21	15.510000	1213.020000
CURVE_21	54.570000	386.530000
CURVE_21	71.160000	0.000000
;   Pump Curve
CURVE_22	PUMP3	0.000000	1720.000000
CURVE_22	36.120000	1032.110000
CURVE_22	70.010000	367.180000
CURVE_22	86.780000	0.000000
;   Pump Curve
CURVE_23	PUMP3	0.000000	1166.900000
CURVE_23	6.380000	1041.080000
CURVE_23	47.270000	325.300000
CURVE_23	76.370000	0.000000
;   Pump Curve
CURVE_24	PUMP3	0.000000	1322.000000
CURVE_24	16.920000	990.030000
CURVE_24	56.120000	315.850000
CURVE_24	86.510000	0.000000
;   Pump Curve
CURVE_25	PUMP3	0.000000	1141.700000
CURVE_25	4.940000	1049.470000
CURVE_25	50.760000	280.430000
CURVE_25	75.240000	0.000000
;   Pump Curve
CURVE_250	PUMP3	0.000000	2.220000
CURVE_250	34.310000	1.690000
CURVE_250	93.340000	0.650000
CURVE_250	114.810000	0.000000
;   Pump Curve
CURVE_251	PUMP3	0.000000	2.540000
CURVE_251	15.630000	1.410000
CURVE_251	29.590000	0.470000
CURVE_251	38.990000	0.000000
;   Pump Curve
CURVE_26	PUMP3	0.000000	1317.300000
CURVE_26	13.150000	1019.590000
CURVE_26	46.710000	303.060000
CURVE_26	64.260000	0.000000
;   Pump Curve
CURVE_27	PUMP3	0.000000	1481.300000
CURVE_27	26.980000	932.310000
CURVE_27	57.360000	347.640000
CURVE_27	79.830000	0.000000
;   Pump Curve
CURVE_28	PUMP3	0.000000	3.236192
CURVE_28	26.180000	2.030969
CURVE_28	54.940000	0.763229
CURVE_28	75.450000	0.000000
;   Pump Curve
CURVE_29	PUMP3	0.000000	1238.600000
CURVE_29	20.430000	923.140000
CURVE_29	64.100000	297.260000
CURVE_29	91.500000	0.000000
;   Pump Curve
CURVE_3	PUMP3	0.000000	6840.600000
CURVE_3	39.660000	5019.960000
CURVE_3	81.460000	2572.600000
CURVE_3	98.350000	0.000000
;   Pump Curve
CURVE_30	PUMP3	0.000000	1547.100000
CURVE_30	29.980000	895.060000
CURVE_30	56.200000	335.240000
CURVE_30	73.060000	0.000000
;   Pump Curve
CURVE_31	PUMP3	0.000000	1564.900000
CURVE_31	28.390000	963.420000
CURVE_31	65.610000	242.630000
CURVE_31	82.790000	0.000000
;   Pump Curve
CURVE_32	PUMP3	0.000000	1671.700000
CURVE_32	36.690000	889.820000
CURVE_32	70.190000	270.040000
CURVE_32	95.080000	0.000000
;   Pump Curve
CURVE_33	PUMP3	0.000000	3.294343
CURVE_33	25.600000	2.009536
CURVE_33	57.130000	0.560658
CURVE_33	73.880000	0.001114
;   Pump Curve
CURVE_34	PUMP3	0.000000	2.130000
CURVE_34	33.200000	1.650000
CURVE_34	89.480000	0.620000
CURVE_34	104.350000	0.000000
;   Pump Curve
CURVE_35	PUMP3	0.000000	1088.700000
CURVE_35	5.550000	942.320000
CURVE_35	42.140000	176.520000
CURVE_35	60.930000	0.000000
;   Pump Curve
CURVE_36	PUMP3	0.000000	851.900000
CURVE_36	7.510000	786.410000
CURVE_36	63.540000	268.230000
CURVE_36	86.940000	0.000000
;   Pump Curve
CURVE_37	PUMP3	0.000000	1363.300000
CURVE_37	22.940000	817.880000
CURVE_37	50.210000	235.700000
CURVE_37	66.570000	0.000000
;   Pump Curve
CURVE_38	PUMP3	0.000000	799.400000
CURVE_38	11.830000	722.240000
CURVE_38	67.220000	287.370000
CURVE_38	85.850000	0.000000
;   Pump Curve
CURVE_39	PUMP3	0.000000	1217.200000
CURVE_39	21.050000	757.120000
CURVE_39	45.010000	259.960000
CURVE_39	60.260000	0.000000
;   Pump Curve
CURVE_4	PUMP3	0.000000	7083.500000
CURVE_4	55.340000	4395.430000
CURVE_4	112.040000	1635.100000
CURVE_4	145.340000	0.000000
;   Pump Curve
CURVE_40	PUMP3	0.000000	902.900000
CURVE_40	29.140000	683.110000
CURVE_40	80.500000	243.160000
CURVE_40	98.510000	0.000000
;   Pump Curve
CURVE_41	PUMP3	0.000000	2.980000
CURVE_41	22.180000	1.800000
CURVE_41	53.190000	0.370000
CURVE_41	65.990000	0.000000
;   Pump Curve
CURVE_42	PUMP3	0.000000	1262.000000
CURVE_42	21.230000	768.410000
CURVE_42	47.090000	217.520000
CURVE_42	61.080000	0.000000
;   Pump Curve
CURVE_43	PUMP3	0.000000	1029.300000
CURVE_43	7.630000	835.480000
CURVE_43	36.450000	168.300000
CURVE_43	46.420000	0.000000
;   Pump Curve
CURVE_44	PUMP3	0.000000	893.173690
CURVE_44	5.720000	789.942560
CURVE_44	37.590000	210.950570
CURVE_44	50.030000	0.000000
;   Pump Curve
CURVE_45	PUMP3	0.000000	1256.726800
CURVE_45	20.670000	758.524390
CURVE_45	46.290000	197.485640
CURVE_45	59.620000	0.000000
;   Pump Curve
CURVE_46	PUMP3	0.000000	893.173690
CURVE_46	0.990000	839.313970
CURVE_46	15.740000	201.973950
CURVE_46	26.390000	0.000000
;   Pump Curve
CURVE_47	PUMP3	0.000000	964.986650
CURVE_47	6.550000	767.501010
CURVE_47	27.180000	228.903810
CURVE_47	41.890000	0.000000
;   Pump Curve
CURVE_48	PUMP3	0.000000	1324.051450
CURVE_48	33.050000	668.758190
CURVE_48	55.780000	233.392120
CURVE_48	68.700000	0.000000
;   Pump Curve
CURVE_49	PUMP3	0.000000	1117.589190
CURVE_49	21.590000	713.641290
CURVE_49	51.840000	197.485640
CURVE_49	67.800000	0.000000
;   Pump Curve
CURVE_5	PUMP3	0.000000	4766.585220
CURVE_5	18.820000	3999.084210
CURVE_5	76.430000	1342.004690
CURVE_5	95.230000	0.000000
;   Pump Curve
CURVE_50	PUMP3	0.000000	1050.264540
CURVE_50	18.710000	695.688050
CURVE_50	45.790000	224.415500
CURVE_50	63.270000	0.000000
;   Pump Curve
CURVE_51	PUMP3	0.000000	888.685380
CURVE_51	4.790000	763.012700
CURVE_51	29.240000	188.509020
CURVE_51	41.210000	0.000000
;   Pump Curve
CURVE_52	PUMP3	0.000000	727.106220
CURVE_52	0.170000	722.617910
CURVE_52	19.390000	260.321980
CURVE_52	24.980000	0.000000
;   Pump Curve
CURVE_53	PUMP3	0.000000	1090.659330
CURVE_53	19.760000	682.223120
CURVE_53	44.260000	215.438880
CURVE_53	58.990000	0.000000
;   Pump Curve
CURVE_54	PUMP3	0.000000	1234.285250
CURVE_54	29.440000	637.340020
CURVE_54	50.890000	224.415500
CURVE_54	64.840000	0.000000
;   Pump Curve
CURVE_55	PUMP3	0.000000	1099.635950
CURVE_55	17.960000	691.199740
CURVE_55	40.560000	201.973950
CURVE_55	52.000000	0.000000
;   Pump Curve
CURVE_56	PUMP3	0.000000	1027.822990
CURVE_56	19.390000	650.804950
CURVE_56	44.420000	197.485640
CURVE_56	59.270000	0.000000
;   Pump Curve
CURVE_57	PUMP3	0.000000	776.477630
CURVE_57	13.200000	596.945230
CURVE_57	39.190000	246.857050
CURVE_57	56.210000	0.000000
;   Pump Curve
CURVE_58	PUMP3	0.000000	1144.519050
CURVE_58	26.340000	601.433540
CURVE_58	47.000000	197.485640
CURVE_58	60.190000	0.000000
;   Pump Curve
CURVE_59	PUMP3	0.000000	951.521720
CURVE_59	16.780000	628.363400
CURVE_59	41.940000	184.020710
CURVE_59	55.970000	0.000000
;   Pump Curve
CURVE_6	PUMP3	0.000000	12437.107010
CURVE_6	104.650000	3747.738850
CURVE_6	133.060000	1283.656660
CURVE_6	145.670000	0.000000
;   Pump Curve
CURVE_60	PUMP3	0.000000	794.430870
CURVE_60	10.560000	632.851710
CURVE_60	43.100000	170.555780
CURVE_60	57.720000	0.000000
;   Pump Curve
CURVE_61	PUMP3	0.000000	902.150310
CURVE_61	15.260000	610.410160
CURVE_61	38.640000	192.997330
CURVE_61	52.810000	0.000000
;   Pump Curve
CURVE_62	PUMP3	0.000000	780.965940
CURVE_62	22.950000	570.015370
CURVE_62	63.940000	170.555780
CURVE_62	77.540000	0.000000
;   Pump Curve
CURVE_63	PUMP3	0.000000	807.895800
CURVE_63	5.270000	659.781570
CURVE_63	24.470000	170.555780
CURVE_63	35.610000	0.000000
;   Pump Curve
CURVE_64	PUMP3	0.000000	610.410160
CURVE_64	13.460000	534.108890
CURVE_64	63.240000	188.509020
CURVE_64	75.760000	0.000000
;   Pump Curve
CURVE_65	PUMP3	0.000000	1081.682710
CURVE_65	24.270000	570.015370
CURVE_65	43.660000	179.532400
CURVE_65	54.230000	0.000000
;   Pump Curve
CURVE_66	PUMP3	0.000000	861.755520
CURVE_66	13.610000	587.968610
CURVE_66	36.160000	175.044090
CURVE_66	49.090000	0.000000
;   Pump Curve
CURVE_67	PUMP3	0.000000	1059.241160
CURVE_67	23.000000	552.062130
CURVE_67	40.800000	175.044090
CURVE_67	50.890000	0.000000
;   Pump Curve
CURVE_68	PUMP3	0.000000	668.758190
CURVE_68	26.560000	484.737480
CURVE_68	72.100000	148.114230
CURVE_68	88.770000	0.000000
;   Pump Curve
CURVE_69	PUMP3	0.000000	695.688050
CURVE_69	3.390000	601.433540
CURVE_69	20.630000	166.067470
CURVE_69	30.250000	0.000000
;   Pump Curve
CURVE_7	PUMP3	0.000000	5215.416220
CURVE_7	33.550000	3527.811660
CURVE_7	79.050000	1117.589190
CURVE_7	96.620000	0.000000
;   Pump Curve
CURVE_70	PUMP3	0.000000	911.126930
CURVE_70	16.060000	565.527060
CURVE_70	37.080000	148.114230
CURVE_70	47.210000	0.000000
;   Pump Curve
CURVE_71	PUMP3	0.000000	812.384110
CURVE_71	12.380000	561.038750
CURVE_71	33.960000	161.579160
CURVE_71	45.790000	0.000000
;   Pump Curve
CURVE_72	PUMP3	0.000000	682.223120
CURVE_72	17.790000	493.714100
CURVE_72	44.190000	197.485640
CURVE_72	57.520000	0.000000
;   Pump Curve
CURVE_73	PUMP3	0.000000	641.828330
CURVE_73	13.030000	520.643960
CURVE_73	44.930000	157.090850
CURVE_73	52.080000	0.000000
;   Pump Curve
CURVE_74	PUMP3	0.000000	933.568480
CURVE_74	19.900000	507.179030
CURVE_74	35.400000	179.532400
CURVE_74	45.210000	0.000000
;   Pump Curve
CURVE_75	PUMP3	0.000000	655.293260
CURVE_75	2.870000	561.038750
CURVE_75	16.730000	166.067470
CURVE_75	25.850000	0.000000
;   Pump Curve
CURVE_76	PUMP3	0.000000	578.991990
CURVE_76	27.110000	412.924520
CURVE_76	68.550000	152.602540
CURVE_76	90.780000	0.000000
;   Pump Curve
CURVE_77	PUMP3	0.000000	852.778900
CURVE_77	18.070000	462.295930
CURVE_77	31.260000	184.020710
CURVE_77	40.560000	0.000000
;   Pump Curve
CURVE_78	PUMP3	0.000000	776.477630
CURVE_78	13.320000	489.225790
CURVE_78	28.900000	148.114230
CURVE_78	35.330000	0.000000
;   Pump Curve
CURVE_79	PUMP3	0.000000	825.849040
CURVE_79	14.100000	493.714100
CURVE_79	30.670000	134.649300
CURVE_79	38.640000	0.000000
;   Pump Curve
CURVE_8	PUMP3	0.000000	2854.565160
CURVE_8	2.000000	2805.193750
CURVE_8	79.230000	888.685380
CURVE_8	119.960000	0.000000
;   Pump Curve
CURVE_80	PUMP3	0.000000	695.688050
CURVE_80	10.330000	484.737480
CURVE_80	27.590000	152.602540
CURVE_80	38.190000	0.000000
;   Pump Curve
CURVE_81	PUMP3	0.000000	650.804950
CURVE_81	8.660000	475.760860
CURVE_81	26.540000	143.625920
CURVE_81	36.590000	0.000000
;   Pump Curve
CURVE_82	PUMP3	0.000000	632.851710
CURVE_82	14.600000	453.319310
CURVE_82	41.030000	130.160990
CURVE_82	51.470000	0.000000
;   Pump Curve
CURVE_83	PUMP3	0.000000	623.875090
CURVE_83	23.670000	417.412830
CURVE_83	57.670000	116.696060
CURVE_83	69.500000	0.000000
;   Pump Curve
CURVE_84	PUMP3	0.000000	789.942560
CURVE_84	13.460000	484.737480
CURVE_84	29.650000	107.719440
CURVE_84	33.860000	0.000000
;   Pump Curve
CURVE_85	PUMP3	0.000000	1.050002
CURVE_85	0.600000	1.030002
CURVE_85	25.580000	0.320001
CURVE_85	35.490000	0.000000
;   Pump Curve
CURVE_86	PUMP3	0.000000	641.828330
CURVE_86	11.560000	430.877760
CURVE_86	25.050000	157.090850
CURVE_86	30.020000	0.000000
;   Pump Curve
CURVE_87	PUMP3	0.000000	538.597200
CURVE_87	9.940000	394.971280
CURVE_87	22.840000	184.020710
CURVE_87	30.910000	0.000000
;   Pump Curve
CURVE_88	PUMP3	0.000000	475.760860
CURVE_88	3.970000	421.901140
CURVE_88	25.610000	125.672680
CURVE_88	34.770000	0.000000
;   Pump Curve
CURVE_89	PUMP3	0.000000	381.506350
CURVE_89	0.160000	377.018040
CURVE_89	17.130000	179.532400
CURVE_89	25.980000	0.000000
;   Pump Curve
CURVE_9	PUMP3	0.000000	2051.157670
CURVE_9	20.000000	1817.765550
CURVE_9	100.000000	798.919180
CURVE_9	142.000000	0.000000
;   Pump Curve
CURVE_90	PUMP3	0.000000	628.363400
CURVE_90	13.940000	341.111560
CURVE_90	23.760000	143.625920
CURVE_90	32.020000	0.000000
;   Pump Curve
CURVE_91	PUMP3	0.000000	677.734810
CURVE_91	13.780000	359.064800
CURVE_91	22.550000	130.160990
CURVE_91	25.980000	0.000000
;   Pump Curve
CURVE_92	PUMP3	0.000000	686.711430
CURVE_92	13.000000	318.670010
CURVE_92	19.000000	161.579160
CURVE_92	27.000000	0.000000
;   Pump Curve
CURVE_93	PUMP3	0.000000	363.553110
CURVE_93	0.240000	363.553110
CURVE_93	16.420000	139.137610
CURVE_93	22.730000	0.000000
;   Pump Curve
CURVE_94	PUMP3	0.000000	794.430870
CURVE_94	9.200000	408.436210
CURVE_94	18.540000	76.301270
CURVE_94	22.220000	0.000000
;   Pump Curve
CURVE_95	PUMP3	0.000000	498.202410
CURVE_95	8.640000	341.111560
CURVE_95	19.550000	125.672680
CURVE_95	24.100000	0.000000
;   Pump Curve
CURVE_96	PUMP3	0.000000	453.319310
CURVE_96	12.000000	314.181700
CURVE_96	29.100000	116.696060
CURVE_96	41.090000	0.000000
;   Pump Curve
CURVE_97	PUMP3	0.000000	345.599870
CURVE_97	0.080000	345.599870
CURVE_97	14.210000	125.672680
CURVE_97	19.340000	0.000000
;   Pump Curve
CURVE_98	PUMP3	0.000000	430.877760
CURVE_98	7.220000	314.181700
CURVE_98	16.700000	125.672680
CURVE_98	20.060000	0.000000
;   Pump Curve
CURVE_99	PUMP3	0.000000	15.000030
CURVE_99	11.700000	10.350030
CURVE_99	30.950000	3.000000
CURVE_99	40.040000	0.000000
; 
PRS_CURVE	PUMP3	0.000000	824.900000
PRS_CURVE	5.170000	709.830000
PRS_CURVE	13.640000	450.000000
PRS_CURVE	18.750000	0.000000
; 
WW-1002	STORAGE	1.003566	202.291058
WW-1002	1.103566	78.540001
WW-1002	1.203566	78.540001
WW-1002	1.303566	78.549767
WW-1002	1.403566	78.540001
WW-1002	1.503566	78.542442
WW-1002	1.603566	78.547325
WW-1002	1.703567	78.540001
WW-1002	1.803566	78.542442
WW-1002	1.903566	78.547325
WW-1002	2.003567	78.540001
WW-1002	2.103567	78.554649
WW-1002	2.203566	78.540001
WW-1002	2.303566	78.540001
WW-1002	2.403567	78.544884
WW-1002	2.503567	78.540001
WW-1002	2.803566	78.540001
WW-1002	2.903570	274.057212
WW-1002	3.003570	207.328548
WW-1002	3.103570	318.788862
WW-1002	3.203570	215.271246
WW-1002	3.303569	291.843941
WW-1002	3.403569	139.082409
WW-1002	3.503567	98.952583
WW-1002	3.603566	78.540001
WW-1002	3.903567	78.540001
WW-1002	4.003568	78.564415
WW-1002	4.103568	78.540001
WW-1002	4.203568	78.579064
WW-1002	4.303567	78.540001
WW-1002	4.603568	78.540001
WW-1002	4.703568	78.579064
WW-1002	4.803567	78.540001
WW-1002	5.103568	78.540001
WW-1002	5.203568	78.579064
WW-1002	5.303567	78.540001
WW-1002	5.403567	78.540001
WW-1002	5.503568	78.559532
WW-1002	5.603568	78.540001
WW-1002	6.103567	78.540001
WW-1002	6.203566	80.825192
WW-1002	6.303560	118.474063
WW-1002	6.403571	78.540001
WW-1002	9.905344	78.540001
; 
WW-1002_1	STORAGE	1.003566	202.291058
WW-1002_1	1.103566	78.540001
WW-1002_1	1.203566	78.540001
WW-1002_1	1.303566	78.549767
WW-1002_1	1.403566	78.540001
WW-1002_1	1.503566	78.542442
WW-1002_1	1.603566	78.547325
WW-1002_1	1.703567	78.540001
WW-1002_1	1.803566	78.542442
WW-1002_1	1.903566	78.547325
WW-1002_1	2.003567	78.540001
WW-1002_1	2.103567	78.554649
WW-1002_1	2.203566	78.540001
WW-1002_1	2.303566	78.540001
WW-1002_1	2.403567	78.544884
WW-1002_1	2.503567	78.540001
WW-1002_1	2.803566	78.540001
WW-1002_1	2.903570	274.057212
WW-1002_1	3.003570	207.328548
WW-1002_1	3.103570	318.788862
WW-1002_1	3.203570	215.271246
WW-1002_1	3.303569	291.843941
WW-1002_1	3.403569	139.082409
WW-1002_1	3.503567	98.952583
WW-1002_1	3.603566	78.540001
WW-1002_1	3.903567	78.540001
WW-1002_1	4.003568	78.564415
WW-1002_1	4.103568	78.540001
WW-1002_1	4.203568	78.579064
WW-1002_1	4.303567	78.540001
WW-1002_1	4.603568	78.540001
WW-1002_1	4.703568	78.579064
WW-1002_1	4.803567	78.540001
WW-1002_1	5.103568	78.540001
WW-1002_1	5.203568	78.579064
WW-1002_1	5.303567	78.540001
WW-1002_1	5.403567	78.540001
WW-1002_1	5.503568	78.559532
WW-1002_1	5.603568	78.540001
WW-1002_1	6.103567	78.540001
WW-1002_1	6.203566	80.825192
WW-1002_1	6.303560	118.474063
WW-1002_1	6.403571	78.540001
WW-1002_1	9.905344	78.540001
; 
WW-1003	STORAGE	1.003572	441.979924
WW-1003	1.103571	78.540001
WW-1003	1.203571	192.881726
WW-1003	1.303571	78.540001
WW-1003	1.403571	162.026684
WW-1003	1.503571	78.540001
WW-1003	1.703570	78.540001
WW-1003	1.803570	78.549767
WW-1003	1.903570	78.540001
WW-1003	2.003571	78.544884
WW-1003	2.103570	78.544884
WW-1003	2.203570	78.540001
WW-1003	2.303571	78.540001
WW-1003	2.403571	78.564415
WW-1003	2.503571	78.540001
WW-1003	2.603570	78.544884
WW-1003	2.703570	78.540001
WW-1003	2.903571	78.540001
WW-1003	3.003570	78.549767
WW-1003	3.103570	78.540001
WW-1003	3.303571	78.540001
WW-1003	3.403571	78.564415
WW-1003	3.503570	78.540001
WW-1003	3.603570	78.564415
WW-1003	3.703571	78.540001
WW-1003	3.803571	78.574181
WW-1003	3.903569	78.549767
WW-1003	4.003572	78.540001
WW-1003	4.103571	78.540001
WW-1003	4.203571	78.569298
WW-1003	4.303572	78.540001
WW-1003	4.503572	78.540001
WW-1003	4.603571	78.559532
WW-1003	4.703572	78.540001
WW-1003	4.803572	78.559532
WW-1003	4.903572	78.540001
WW-1003	5.003572	78.559532
WW-1003	5.103571	78.540001
WW-1003	5.203572	78.549766
WW-1003	5.303571	78.540001
WW-1003	5.403572	78.549767
WW-1003	5.503572	78.540001
WW-1003	5.603572	78.549767
WW-1003	5.703572	78.540001
WW-1003	6.003572	78.540001
WW-1003	6.103572	78.559532
WW-1003	6.203572	78.540001
WW-1003	6.303572	78.569298
WW-1003	6.403571	78.540001
WW-1003	6.503571	78.549767
WW-1003	6.603571	78.540001
WW-1003	6.903571	78.540001
WW-1003	7.003572	78.559532
WW-1003	7.103570	78.540001
WW-1003	7.203570	78.569298
WW-1003	7.303572	78.540001
WW-1003	7.403571	78.588830
WW-1003	7.503572	78.540001
WW-1003	7.603571	78.540001
WW-1003	7.703570	78.559532
WW-1003	7.803571	78.540001
WW-1003	7.903571	78.549767
WW-1003	8.003573	78.540001
WW-1003	8.103572	78.588830
WW-1003	8.203573	78.540001
WW-1003	8.303572	78.579064
WW-1003	8.403573	78.540001
WW-1003	8.503572	78.579064
WW-1003	8.603573	78.540001
WW-1003	8.703571	78.559532
WW-1003	8.803573	78.540001
WW-1003	8.903571	78.559532
WW-1003	9.003572	78.540001
WW-1003	9.103573	78.540001
WW-1003	9.203573	78.559532
WW-1003	9.303573	78.540001
WW-1003	9.403565	78.540001
WW-1003	9.503560	78.598598
WW-1003	9.603562	78.540001
WW-1003	9.906978	78.540001
; 
WW-147	STORAGE	1.031045	347.873747
WW-147	1.234045	28.270000
WW-147	1.437045	28.270246
WW-147	1.640046	28.270000
WW-147	1.843046	28.271621
WW-147	2.046046	28.273157
WW-147	2.249046	28.270000
WW-147	2.452046	28.270000
WW-147	2.655046	28.270487
WW-147	2.858046	28.270000
WW-147	3.670042	28.270000
WW-147	3.873059	248.897305
WW-147	4.076068	234.387145
WW-147	4.279072	414.660555
WW-147	4.482072	106.561924
WW-147	4.685060	300.252140
WW-147	4.888066	161.826045
WW-147	5.091063	387.129282
WW-147	5.294060	52.731058
WW-147	5.497059	223.316179
WW-147	5.700058	112.975659
WW-147	5.903059	217.675182
WW-147	6.106050	28.270000
WW-147	6.512050	28.270000
WW-147	6.715047	62.838447
WW-147	6.918079	729.526977
WW-147	7.121078	349.740197
WW-147	7.324067	453.338837
WW-147	7.527055	28.270000
WW-147	7.730065	284.876760
WW-147	7.933076	595.739475
WW-147	8.136072	253.317979
WW-147	8.339062	148.440420
WW-147	8.542055	28.270000
WW-147	8.745079	722.417020
WW-147	8.948074	76.996106
WW-147	9.151086	712.728900
WW-147	9.354082	47.436346
WW-147	9.557080	771.569323
WW-147	9.760070	28.270000
WW-147	9.963064	289.557483
WW-147	10.166067	73.948864
WW-147	10.369065	297.906173
WW-147	10.572066	28.270000
WW-147	10.775084	739.072166
WW-147	10.978087	325.223896
WW-147	11.181077	578.524202
WW-147	11.384067	28.270000
WW-147	11.587062	214.463043
WW-147	11.790075	319.199882
WW-147	11.993084	489.251628
WW-147	12.196078	171.944547
WW-147	12.399070	234.835776
WW-147	12.602076	207.058630
WW-147	12.805065	318.658233
WW-147	13.008037	28.270000
WW-147	13.211029	52.210899
WW-147	13.414028	28.270000
WW-147	13.617024	158.981342
WW-147	13.820040	72.581156
WW-147	14.023054	83.019068
WW-147	14.226072	28.270000
WW-147	14.429076	122.485583
WW-147	14.632138	28.270000
WW-147	20.110977	28.270000
; 
WW-220	STORAGE	1.182290	1108.264950
WW-220	1.375540	100.000000
WW-220	1.569540	100.000000
WW-220	1.763540	100.001022
WW-220	1.957539	100.029798
WW-220	2.151541	100.000000
WW-220	2.539541	100.000000
WW-220	2.733541	100.001941
WW-220	2.927541	100.000000
WW-220	3.121541	100.000000
WW-220	3.315541	100.003598
WW-220	3.509541	100.000000
WW-220	3.897539	100.000000
WW-220	4.091538	100.003692
WW-220	4.285539	100.000000
WW-220	4.479538	100.005538
WW-220	4.673539	100.003344
WW-220	4.867538	100.000000
WW-220	5.255539	100.000000
WW-220	5.449539	100.011159
WW-220	5.643539	100.000000
WW-220	5.837538	100.010659
WW-220	6.031538	100.000000
WW-220	6.225540	108.009680
WW-220	6.419560	250.744571
WW-220	6.613555	100.000000
WW-220	6.807565	200.177238
WW-220	7.001559	114.966361
WW-220	7.195570	335.524524
WW-220	7.389574	148.065580
WW-220	7.583568	275.246719
WW-220	7.777562	149.316552
WW-220	7.971560	219.933243
WW-220	8.165558	100.000000
WW-220	8.553545	100.000000
WW-220	8.747561	374.203196
WW-220	8.941563	217.747942
WW-220	9.135561	338.229584
WW-220	9.329559	100.000000
WW-220	9.523548	100.000000
WW-220	9.717548	220.499098
WW-220	9.911568	523.675312
WW-220	10.105566	271.007958
WW-220	10.299562	345.616169
WW-220	10.493561	100.000000
WW-220	10.687560	553.717114
WW-220	10.881577	467.839579
WW-220	11.075573	563.389817
WW-220	11.269579	365.765143
WW-220	11.463568	299.618374
WW-220	11.657562	385.004769
WW-220	11.851564	206.672632
WW-220	12.045561	287.734178
WW-220	12.239559	212.673562
WW-220	12.433555	210.805852
WW-220	12.627567	491.966481
WW-220	12.821567	292.794359
WW-220	13.015576	581.291720
WW-220	13.209564	224.495264
WW-220	13.403601	1104.264701
WW-220	13.597614	1004.497245
WW-220	13.791634	1581.580050
WW-220	13.985622	735.012366
WW-220	14.179608	1131.287354
WW-220	14.373586	100.000000
WW-220	14.567575	835.183277
WW-220	14.761584	273.899191
WW-220	14.955605	1293.210146
WW-220	15.149612	505.243086
WW-220	15.343609	1375.449553
WW-220	15.537609	589.276239
WW-220	15.731638	1861.380056
WW-220	15.925632	743.663357
WW-220	16.119635	1549.078489
WW-220	16.313618	223.064401
WW-220	16.507610	1261.225559
WW-220	16.701616	473.558378
WW-220	16.895638	1596.615101
WW-220	17.089638	852.533409
WW-220	17.283661	1852.603383
WW-220	17.477646	811.968954
WW-220	17.671654	1776.855724
WW-220	17.865622	396.216743
WW-220	18.059477	100.000000
WW-220	19.221918	100.000000
; 
WW-223	STORAGE	1.086834	508.540415
WW-223	1.240835	28.270000
WW-223	1.394835	28.271208
WW-223	1.548834	28.270000
WW-223	1.702835	28.270000
WW-223	1.856835	28.276241
WW-223	2.010834	28.270000
WW-223	2.164834	28.270575
WW-223	2.318834	28.270000
WW-223	2.626834	28.270000
WW-223	2.780834	28.276478
WW-223	2.934834	28.270000
WW-223	3.088834	28.276681
WW-223	3.242834	28.270000
WW-223	3.396834	28.270688
WW-223	3.550834	28.270000
WW-223	3.704834	28.274324
WW-223	3.858834	28.270000
WW-223	4.012833	28.280324
WW-223	4.166842	152.642946
WW-223	4.320844	247.389541
WW-223	4.474842	142.365872
WW-223	4.628844	193.715764
WW-223	4.782841	91.475866
WW-223	4.936840	143.272917
WW-223	5.090843	232.681936
WW-223	5.244844	202.592627
WW-223	5.398846	291.534710
WW-223	5.552842	84.189213
WW-223	5.706841	108.231259
WW-223	5.860836	28.270000
WW-223	6.014843	204.077378
WW-223	6.168844	196.859342
WW-223	6.322843	216.780376
WW-223	6.476843	129.679822
WW-223	6.630834	28.270000
WW-223	6.784842	254.828275
WW-223	6.938841	71.696191
WW-223	7.092847	364.363192
WW-223	7.246843	79.078180
WW-223	7.400843	294.410732
WW-223	7.554849	359.296405
WW-223	7.708846	177.656249
WW-223	7.862844	272.588055
WW-223	8.016843	28.270000
WW-223	8.170839	28.270000
WW-223	8.324844	157.243106
WW-223	8.478846	116.870120
WW-223	8.632845	152.956075
WW-223	8.786842	80.399137
WW-223	8.940849	366.648163
WW-223	9.094849	188.752567
WW-223	9.248850	310.482538
WW-223	9.402843	28.270000
WW-223	9.556845	151.435790
WW-223	9.710851	343.192619
WW-223	9.864851	237.504121
WW-223	10.018848	289.736357
WW-223	10.172845	28.270000
WW-223	10.326840	45.910128
WW-223	10.480840	28.270000
WW-223	10.634839	28.270000
WW-223	10.788857	489.331061
WW-223	10.942864	756.184089
WW-223	11.096864	550.284174
WW-223	11.250861	558.711873
WW-223	11.404856	280.731530
WW-223	11.558848	165.687148
WW-223	11.712846	41.401676
WW-223	11.866842	82.895021
WW-223	12.020842	43.382937
WW-223	12.174856	448.680269
WW-223	12.328856	375.346875
WW-223	12.482855	195.363729
WW-223	12.636853	342.951287
WW-223	12.790813	28.270000
WW-223	12.944838	94.376132
WW-223	13.098868	28.270000
WW-223	15.251798	28.270000
; 
WW-224	STORAGE	1.079547	175.583485
WW-224	1.232547	28.270000
WW-224	1.385547	28.270000
WW-224	1.538547	28.271136
WW-224	1.691547	28.273899
WW-224	1.844547	28.270000
WW-224	2.150548	28.270000
WW-224	2.303547	28.384040
WW-224	2.456547	28.472684
WW-224	2.609545	28.270000
WW-224	2.762559	416.975806
WW-224	2.915564	265.918452
WW-224	3.068564	453.220764
WW-224	3.221560	101.799506
WW-224	3.374553	79.882881
WW-224	3.527552	166.891671
WW-224	3.680552	127.859113
WW-224	3.833560	513.871764
WW-224	3.986558	172.719174
WW-224	4.139560	466.581031
WW-224	4.292558	46.095449
WW-224	4.445551	71.250768
WW-224	4.598557	322.833182
WW-224	4.751558	132.370528
WW-224	4.904558	290.566863
WW-224	5.057552	28.270000
WW-224	5.516548	28.270000
WW-224	5.669557	172.354140
WW-224	5.822557	306.785918
WW-224	5.975559	283.447003
WW-224	6.128567	700.693586
WW-224	6.281569	282.723321
WW-224	6.434567	696.152214
WW-224	6.587565	103.977059
WW-224	6.740559	175.125434
WW-224	6.893554	52.449000
WW-224	7.046554	155.723327
WW-224	7.199552	49.960724
WW-224	7.352556	252.380217
WW-224	7.505554	28.270000
WW-224	7.658554	243.986971
WW-224	7.811553	28.270000
WW-224	7.964550	33.217306
WW-224	8.117548	28.270000
WW-224	8.270552	118.276935
WW-224	8.423554	207.931175
WW-224	8.576553	152.502992
WW-224	8.729551	146.306442
WW-224	8.882555	136.811239
WW-224	9.035557	127.499610
WW-224	9.188557	161.626848
WW-224	9.341556	88.982559
WW-224	9.494549	28.270000
WW-224	9.647552	176.788921
WW-224	9.800552	91.334726
WW-224	9.953552	176.800082
WW-224	10.106552	43.521845
WW-224	10.259550	28.270000
WW-224	10.412546	33.128303
WW-224	10.565556	220.905630
WW-224	10.718537	28.270000
WW-224	10.871533	99.124446
WW-224	11.024543	68.883743
WW-224	11.177555	51.988092
WW-224	11.330565	28.270000
WW-224	12.248659	28.270000
WW-224	12.401669	114.037695
WW-224	12.554679	60.415459
WW-224	12.707688	114.579074
WW-224	12.860696	34.817297
WW-224	13.013706	59.975267
WW-224	13.166715	28.270000
WW-224	15.152515	28.270000
; 
WW-225	STORAGE	1.144610	1556.766848
WW-225	1.306610	50.270000
WW-225	1.468609	50.274108
WW-225	1.630609	50.270000
WW-225	1.954610	50.270000
WW-225	2.116609	50.270388
WW-225	2.278608	50.281292
WW-225	2.440609	50.270000
WW-225	2.602609	50.272829
WW-225	2.764609	50.270000
WW-225	2.926609	50.270000
WW-225	3.088609	50.278904
WW-225	3.250609	50.270000
WW-225	3.412609	50.270000
WW-225	3.574609	50.271538
WW-225	3.736609	50.272851
WW-225	3.898609	50.274391
WW-225	4.060607	50.270000
WW-225	4.384607	50.270000
WW-225	4.546607	50.272249
WW-225	4.708608	50.270000
WW-225	4.870607	50.270393
WW-225	5.032608	50.280351
WW-225	5.194608	50.270000
WW-225	5.356608	50.270000
WW-225	5.518608	50.281308
WW-225	5.680607	50.270000
WW-225	5.842607	50.276667
WW-225	6.004608	50.270000
WW-225	6.166607	50.275221
WW-225	6.328608	50.270000
WW-225	6.490607	50.275876
WW-225	6.652607	50.270000
WW-225	6.814607	50.280810
WW-225	6.976608	50.270000
WW-225	7.138607	50.270000
WW-225	7.300605	59.302880
WW-225	7.462636	797.782207
WW-225	7.624634	50.270000
WW-225	7.786638	1079.745192
WW-225	7.948633	50.270000
WW-225	8.110630	714.192506
WW-225	8.272629	50.270000
WW-225	8.434618	441.654666
WW-225	8.596623	132.793298
WW-225	8.758634	791.057833
WW-225	8.920633	492.987890
WW-225	9.082650	1249.993313
WW-225	9.244645	396.431639
WW-225	9.406634	664.441795
WW-225	9.568633	315.920383
WW-225	9.730631	375.279075
WW-225	9.892626	50.270000
WW-225	10.054613	50.270000
WW-225	10.216619	333.839869
WW-225	10.378636	821.854614
WW-225	10.540641	829.110571
WW-225	10.702664	1507.115265
WW-225	10.864662	690.722275
WW-225	11.026655	1128.532252
WW-225	11.188643	156.025257
WW-225	11.350641	736.936735
WW-225	11.512636	123.736496
WW-225	11.674644	1112.728610
WW-225	11.836645	248.088001
WW-225	11.998642	893.995129
WW-225	12.160639	50.270000
WW-225	12.322623	676.415044
WW-225	12.484655	1033.882459
WW-225	12.646658	1009.448112
WW-225	12.808653	822.024608
WW-225	12.970646	605.361777
WW-225	13.132644	588.171208
WW-225	13.294662	1398.033185
WW-225	13.456675	1202.673253
WW-225	13.618672	1236.933117
WW-225	13.780667	956.708325
WW-225	13.942655	709.444429
WW-225	14.104642	465.282570
WW-225	14.266636	316.178359
WW-225	14.428639	669.008114
WW-225	14.590642	572.420599
WW-225	14.752649	1024.191142
WW-225	14.914674	1094.668812
WW-225	15.076674	1424.701164
WW-225	15.238662	906.397514
WW-225	15.400618	144.579755
WW-225	15.562613	50.270000
WW-225	16.045393	50.270000
; 
WW-226	STORAGE	1.121539	737.320254
WW-226	1.260351	103.870003
WW-226	1.954801	103.870003
WW-226	2.093800	116.801073
WW-226	2.232798	113.504420
WW-226	2.371812	498.847812
WW-226	2.510821	487.772672
WW-226	2.649824	767.133468
WW-226	2.788825	574.124107
WW-226	2.927826	757.830868
WW-226	3.066824	462.353127
WW-226	3.205825	643.623418
WW-226	3.344823	390.521459
WW-226	3.483819	527.867728
WW-226	3.622817	279.083248
WW-226	3.761818	510.287260
WW-226	3.900814	293.473305
WW-226	4.039815	596.614352
WW-226	4.178818	559.278626
WW-226	4.317819	763.587357
WW-226	4.456819	581.153801
WW-226	4.595819	688.179937
WW-226	4.734815	353.017228
WW-226	4.873814	482.430561
WW-226	5.012815	258.478693
WW-226	5.151807	122.688309
WW-226	5.290804	201.460800
WW-226	5.429807	103.870003
WW-226	5.568813	266.413321
WW-226	5.707817	635.509311
WW-226	5.846820	451.377509
WW-226	5.985823	776.321187
WW-226	6.124832	874.991706
WW-226	6.263839	1278.794893
WW-226	6.402847	1516.999438
WW-226	6.541863	1981.726374
WW-226	6.680869	2001.697769
WW-226	6.819876	2439.424858
WW-226	6.958876	2097.820035
WW-226	7.097876	2514.826936
WW-226	7.236876	2071.001716
WW-226	7.375877	2355.591850
WW-226	7.514874	1605.956074
WW-226	7.653868	2030.874661
WW-226	7.792863	1207.649577
WW-226	7.931859	1750.497442
WW-226	8.070862	1327.209261
WW-226	8.209867	1956.448800
WW-226	8.348866	1311.880399
WW-226	8.487864	2083.320625
WW-226	8.626862	1159.841126
WW-226	8.765853	1305.014422
WW-226	8.904846	827.963856
WW-226	9.043845	1262.713890
WW-226	9.182851	902.889890
WW-226	9.321852	1331.922193
WW-226	9.460852	724.328962
WW-226	9.599842	987.285174
WW-226	9.738839	829.763441
WW-226	9.877839	937.051219
WW-226	10.016841	859.772795
WW-226	10.155838	659.910257
WW-226	10.294830	551.146513
WW-226	10.433827	447.946857
WW-226	10.572826	647.724127
WW-226	10.711835	801.497763
WW-226	10.850850	1578.693017
WW-226	10.989867	1525.557193
WW-226	11.128861	1503.076933
WW-226	11.267856	1386.153117
WW-226	11.406848	1046.757822
WW-226	11.545853	1053.669828
WW-226	11.684847	1033.891673
WW-226	11.823841	984.729976
WW-226	11.962851	863.216043
WW-226	12.101817	103.870003
WW-226	13.766762	103.870003
; 
WW-227	STORAGE	1.059454	175.108586
WW-227	1.155454	100.000000
WW-227	1.251453	100.008407
WW-227	1.347453	100.000000
WW-227	1.443454	100.006390
WW-227	1.539454	100.000000
WW-227	1.635454	100.000777
WW-227	1.731453	100.008091
WW-227	1.827453	100.000000
WW-227	1.923454	100.000000
WW-227	2.019453	100.013493
WW-227	2.115453	100.000000
WW-227	2.211453	100.000000
WW-227	2.307453	100.014482
WW-227	2.403453	100.000000
WW-227	2.499453	100.011412
WW-227	2.595453	100.000000
WW-227	2.691453	100.000000
WW-227	2.787453	100.016036
WW-227	2.883453	100.000000
WW-227	2.979453	100.003847
WW-227	3.075453	100.000000
WW-227	3.171453	100.000777
WW-227	3.267453	100.000462
WW-227	3.363453	100.003385
WW-227	3.459453	100.000000
WW-227	3.555453	100.005864
WW-227	3.651453	100.000000
WW-227	3.747453	100.014020
WW-227	3.843453	100.000000
WW-227	4.131453	100.000000
WW-227	4.227452	100.009395
WW-227	4.323452	100.001555
WW-227	4.419453	100.000000
WW-227	4.515452	100.000000
WW-227	4.611452	100.009395
WW-227	4.707453	100.000000
WW-227	4.803452	100.000000
WW-227	4.899452	100.017000
WW-227	4.995452	100.000000
WW-227	5.091453	100.000000
WW-227	5.187452	100.151960
WW-227	5.283453	103.061905
WW-227	5.379453	114.272980
WW-227	5.475452	123.038893
WW-227	5.571454	100.000000
WW-227	5.667455	307.614482
WW-227	5.763454	139.805354
WW-227	5.859455	320.774742
WW-227	5.955455	130.867517
WW-227	6.051454	287.706950
WW-227	6.147455	100.000000
WW-227	6.339453	100.000000
WW-227	6.435452	100.000770
WW-227	6.531452	100.000745
WW-227	6.627452	100.000000
WW-227	7.107454	100.000000
WW-227	7.203455	307.348021
WW-227	7.299457	408.858799
WW-227	7.395459	569.632648
WW-227	7.491459	656.277146
WW-227	7.587461	611.126550
WW-227	7.683459	577.153367
WW-227	7.779457	290.976589
WW-227	7.875456	336.352779
WW-227	7.971453	100.000000
WW-227	8.355454	100.000000
WW-227	8.451454	100.163486
WW-227	8.547454	100.000000
WW-227	8.643456	100.977962
WW-227	8.739454	104.580978
WW-227	8.835457	105.180252
WW-227	8.931458	324.791183
WW-227	9.027452	175.183861
WW-227	9.123444	353.256379
WW-227	9.219415	176.713551
WW-227	9.315369	320.973553
WW-227	9.411439	255.130003
WW-227	9.508469	100.000000
; 
WW-228	STORAGE	1.031299	315.358149
WW-228	1.201299	19.629999
WW-228	1.371299	19.631319
WW-228	1.541299	19.629999
WW-228	1.711298	19.641261
WW-228	1.881299	19.629999
WW-228	2.221298	19.629999
WW-228	2.391298	19.638093
WW-228	2.561298	19.654212
WW-228	2.731299	20.250503
WW-228	2.901299	19.629999
WW-228	3.071310	419.633800
WW-228	3.241311	192.480198
WW-228	3.411310	388.757966
WW-228	3.581309	19.629999
WW-228	3.751300	37.933525
WW-228	3.921298	19.629999
WW-228	4.091307	116.838785
WW-228	4.261308	252.486742
WW-228	4.431308	133.411983
WW-228	4.601306	166.636881
WW-228	4.771300	19.629999
WW-228	4.941299	19.629999
WW-228	5.111300	19.711207
WW-228	5.281298	19.629999
WW-228	5.451307	236.998976
WW-228	5.621307	138.336558
WW-228	5.791307	216.453512
WW-228	5.961302	19.629999
WW-228	6.131301	112.257438
WW-228	6.301327	882.670762
WW-228	6.471329	397.981212
WW-228	6.641322	593.041300
WW-228	6.811310	19.629999
WW-228	7.321298	19.629999
WW-228	7.491310	244.448557
WW-228	7.661312	264.353981
WW-228	7.831310	195.018508
WW-228	8.001306	65.501243
WW-228	8.171300	19.629999
WW-228	8.341295	19.629999
WW-228	8.511310	373.062600
WW-228	8.681319	496.917957
WW-228	8.851320	447.560371
WW-228	9.021314	153.770709
WW-228	9.191306	78.602362
WW-228	9.361297	19.629999
WW-228	9.701298	19.629999
WW-228	9.871299	19.651948
WW-228	10.041299	20.934874
WW-228	10.211300	89.871044
WW-228	10.381311	387.361932
WW-228	10.551315	209.127550
WW-228	10.721313	303.702435
WW-228	10.891307	19.629999
WW-228	11.061307	156.831710
WW-228	11.231298	19.629999
WW-228	11.401303	153.431354
WW-228	11.571307	180.994083
WW-228	11.741307	204.902190
WW-228	11.911310	122.071408
WW-228	12.081304	145.909063
WW-228	12.251307	82.509240
WW-228	12.421302	113.094439
WW-228	12.591308	140.313436
WW-228	12.761275	19.629999
WW-228	12.931289	19.629999
WW-228	13.101303	135.243853
WW-228	13.271321	150.526436
WW-228	13.441339	129.191835
WW-228	13.611354	56.030350
WW-228	13.781365	62.943621
WW-228	13.951380	19.629999
WW-228	16.838449	19.629999
; 
WW-229	STORAGE	1.067029	314.010695
WW-229	1.185029	28.270000
WW-229	1.303029	28.276672
WW-229	1.421029	28.270000
WW-229	1.539029	28.270000
WW-229	1.657029	28.271605
WW-229	1.775029	28.272999
WW-229	1.893029	28.270000
WW-229	2.011030	28.270000
WW-229	2.129029	28.279881
WW-229	2.247030	28.270000
WW-229	2.837024	28.270000
WW-229	2.955032	167.940363
WW-229	3.073033	122.734712
WW-229	3.191033	175.272634
WW-229	3.309032	92.820267
WW-229	3.427032	109.540693
WW-229	3.545030	28.270000
WW-229	3.781029	28.270000
WW-229	3.899027	36.643147
WW-229	4.017035	381.750346
WW-229	4.135037	417.386910
WW-229	4.253037	413.641430
WW-229	4.371036	353.536622
WW-229	4.489036	240.516158
WW-229	4.607029	28.270000
WW-229	4.725029	28.270000
WW-229	4.843029	28.270465
WW-229	4.961029	28.293899
WW-229	5.079029	28.270000
WW-229	5.197029	28.302640
WW-229	5.315029	28.270000
WW-229	5.551029	28.270000
WW-229	5.669028	28.964992
WW-229	5.787033	245.246636
WW-229	5.905034	311.807839
WW-229	6.023033	289.459247
WW-229	6.141037	490.736311
WW-229	6.259039	497.617174
WW-229	6.377038	368.012603
WW-229	6.495038	543.175601
WW-229	6.613037	273.533982
WW-229	6.731035	286.158541
WW-229	6.849030	28.270000
WW-229	7.439029	28.270000
WW-229	7.557030	79.044564
WW-229	7.675031	110.719079
WW-229	7.793029	107.822736
WW-229	7.911033	233.567288
WW-229	8.029035	488.194378
WW-229	8.147034	231.900451
WW-229	8.265036	569.975724
WW-229	8.383036	232.705869
WW-229	8.501034	334.093992
WW-229	8.619033	103.940485
WW-229	8.737038	690.159704
WW-229	8.855036	126.979270
WW-229	8.973034	534.299093
WW-229	9.091034	111.667645
WW-229	9.209034	439.340185
WW-229	9.327031	28.270000
WW-229	9.445031	397.256730
WW-229	9.563034	225.432420
WW-229	9.681036	607.340394
WW-229	9.799037	354.492996
WW-229	9.917036	503.948800
WW-229	10.035037	437.522533
WW-229	10.153037	460.483539
WW-229	10.271034	267.188452
WW-229	10.389033	275.661613
WW-229	10.507033	164.667610
WW-229	10.625035	465.295072
WW-229	10.743037	99.747899
WW-229	10.861025	277.517460
WW-229	10.979018	28.270000
WW-229	11.688629	28.270000
; 
WW-231	STORAGE	1.040116	170.932375
WW-231	1.155115	28.270000
WW-231	1.270116	28.281262
WW-231	1.385116	28.376115
WW-231	1.500116	29.122129
WW-231	1.615115	29.318882
WW-231	1.730116	28.270000
WW-231	1.845119	148.601288
WW-231	1.960118	70.076824
WW-231	2.075119	159.601091
WW-231	2.190119	61.383912
WW-231	2.305119	124.605232
WW-231	2.420118	28.270000
WW-231	2.535117	28.270000
WW-231	2.650120	278.819794
WW-231	2.765120	144.443713
WW-231	2.880120	303.365942
WW-231	2.995120	120.984550
WW-231	3.110120	219.651847
WW-231	3.225117	28.270000
WW-231	3.340117	28.270000
WW-231	3.455116	28.875122
WW-231	3.570115	35.363898
WW-231	3.685119	127.860745
WW-231	3.800120	343.270141
WW-231	3.915122	190.235483
WW-231	4.030119	343.262722
WW-231	4.145121	126.373695
WW-231	4.260118	168.772478
WW-231	4.375115	28.270000
WW-231	4.490115	28.270000
WW-231	4.605115	28.466916
WW-231	4.720115	28.270000
WW-231	4.835115	28.270000
WW-231	4.950119	291.024400
WW-231	5.065118	119.606391
WW-231	5.180120	307.225058
WW-231	5.295117	81.801998
WW-231	5.410122	416.633244
WW-231	5.525120	28.270000
WW-231	5.640120	465.843643
WW-231	5.755121	28.270000
WW-231	5.870120	374.035195
WW-231	5.985116	28.270000
WW-231	6.215116	28.270000
WW-231	6.330116	28.303968
WW-231	6.445116	28.270000
WW-231	6.790115	28.270000
WW-231	6.905119	190.445977
WW-231	7.020121	301.212908
WW-231	7.135121	262.582535
WW-231	7.250121	282.563374
WW-231	7.365121	169.764330
WW-231	7.480117	37.356197
WW-231	7.595116	28.270000
WW-231	7.710116	28.639445
WW-231	7.825116	28.270000
WW-231	7.940121	379.201654
WW-231	8.055119	139.729536
WW-231	8.170119	394.342553
WW-231	8.285118	97.487152
WW-231	8.400119	303.961919
WW-231	8.515114	28.270000
WW-231	8.630114	36.737528
WW-231	8.745117	175.173773
WW-231	8.860117	87.101256
WW-231	8.975117	181.895730
WW-231	9.090116	74.418612
WW-231	9.205115	162.703442
WW-231	9.320120	274.846792
WW-231	9.435121	297.449136
WW-231	9.550120	298.387632
WW-231	9.665119	253.303242
WW-231	9.780121	204.309996
WW-231	9.895115	28.270000
WW-231	10.125115	28.270000
WW-231	10.240114	28.565153
WW-231	10.355114	30.636844
WW-231	10.470114	48.559920
WW-231	10.585119	264.760630
WW-231	10.700120	300.960958
WW-231	10.815119	304.399444
WW-231	10.930120	275.365422
WW-231	11.045103	201.527044
WW-231	11.159928	446.341147
WW-231	11.274282	28.270000
WW-231	11.386774	28.270000
; 
WW-232	STORAGE	1.085364	246.616753
WW-232	1.205364	28.270000
WW-232	1.325364	28.278497
WW-232	1.445364	28.270000
WW-232	1.565364	28.271097
WW-232	1.685364	28.270000
WW-232	1.805364	28.309615
WW-232	1.925364	30.079457
WW-232	2.045365	59.985340
WW-232	2.165366	28.270000
WW-232	2.285367	66.640101
WW-232	2.405367	33.257506
WW-232	2.525366	64.911839
WW-232	2.645367	28.270000
WW-232	2.765366	40.295154
WW-232	2.885365	28.270000
WW-232	3.005361	28.270000
WW-232	3.125370	300.481500
WW-232	3.245371	314.813217
WW-232	3.365371	341.010203
WW-232	3.485372	275.024613
WW-232	3.605370	215.332947
WW-232	3.725366	28.270000
WW-232	3.845365	28.270000
WW-232	3.965364	28.276573
WW-232	4.085366	28.287567
WW-232	4.205365	29.079488
WW-232	4.325365	42.592002
WW-232	4.445374	537.137019
WW-232	4.565374	289.505247
WW-232	4.685374	561.296133
WW-232	4.805374	206.232480
WW-232	4.925372	333.080217
WW-232	5.045366	28.270000
WW-232	5.165373	540.984133
WW-232	5.285374	200.208838
WW-232	5.405374	542.240834
WW-232	5.525372	104.300169
WW-232	5.645370	364.180147
WW-232	5.765372	181.101465
WW-232	5.885373	490.347131
WW-232	6.005373	174.227750
WW-232	6.125372	404.146613
WW-232	6.245371	28.270000
WW-232	6.365370	370.659602
WW-232	6.485371	125.326252
WW-232	6.605371	370.597923
WW-232	6.725371	57.566323
WW-232	6.845367	201.855835
WW-232	6.965365	28.270000
WW-232	7.085364	28.270000
WW-232	7.205376	644.848438
WW-232	7.325377	341.533945
WW-232	7.445376	702.622202
WW-232	7.565377	267.388766
WW-232	7.685375	500.686909
WW-232	7.805368	28.270000
WW-232	7.925366	28.270000
WW-232	8.045369	93.916275
WW-232	8.165371	353.499762
WW-232	8.285374	183.707629
WW-232	8.405375	406.317821
WW-232	8.525376	402.424237
WW-232	8.645375	289.668129
WW-232	8.765372	172.956155
WW-232	8.885372	261.006595
WW-232	9.005372	74.174397
WW-232	9.125369	28.270000
WW-232	9.245366	28.270000
WW-232	9.365372	106.339006
WW-232	9.485370	197.506939
WW-232	9.605371	178.546226
WW-232	9.725376	474.468682
WW-232	9.845377	208.840869
WW-232	9.965374	336.731870
WW-232	10.085375	157.901700
WW-232	10.205374	326.588598
WW-232	10.325371	28.270000
WW-232	10.445370	215.368375
WW-232	10.565373	160.144729
WW-232	10.685373	270.707882
WW-232	10.805375	332.093378
WW-232	10.925366	859.199190
WW-232	11.045401	28.270000
WW-232	11.882240	28.270000
; 
WW-242	STORAGE	1.070590	64.623768
WW-242	1.203591	28.270000
WW-242	1.336591	28.270000
WW-242	1.469590	28.276457
WW-242	1.602590	28.270000
WW-242	1.735590	28.275143
WW-242	1.868590	28.270000
WW-242	2.001591	28.270000
WW-242	2.134591	28.280064
WW-242	2.267591	28.270000
WW-242	2.400591	28.272200
WW-242	2.533591	28.272422
WW-242	2.666591	28.270300
WW-242	2.799591	28.271173
WW-242	2.932591	28.270000
WW-242	3.065591	28.270951
WW-242	3.198591	28.270000
WW-242	3.331591	28.282486
WW-242	3.464591	28.270000
WW-242	3.597590	28.289307
WW-242	3.730591	28.270000
WW-242	3.863590	28.278815
WW-242	3.996591	28.270000
WW-242	4.129592	28.278293
WW-242	4.262592	28.270000
WW-242	4.528592	28.270000
WW-242	4.661592	28.285636
WW-242	4.794592	28.270000
WW-242	4.927592	28.278815
WW-242	5.060592	28.270000
WW-242	5.193592	28.270000
WW-242	5.326592	28.276393
WW-242	5.459591	28.270000
WW-242	5.725592	28.270000
WW-242	5.858593	28.276393
WW-242	5.991591	28.279765
WW-242	6.124592	28.270000
WW-242	6.390593	28.270000
WW-242	6.523592	28.300843
WW-242	6.656592	28.270000
WW-242	6.922592	28.270000
WW-242	7.055592	28.286157
WW-242	7.188592	28.270000
WW-242	7.321592	28.270000
WW-242	7.454592	28.276393
WW-242	7.587592	28.270000
WW-242	7.853592	28.270000
WW-242	7.986590	28.653959
WW-242	8.119589	36.453528
WW-242	8.252594	51.294255
WW-242	8.385593	273.626642
WW-242	8.518596	112.488942
WW-242	8.651593	272.379158
WW-242	8.784593	37.567856
WW-242	8.917595	272.091808
WW-242	9.050596	115.906658
WW-242	9.183594	310.227715
WW-242	9.316600	276.901149
WW-242	9.449598	350.502367
WW-242	9.582598	111.110436
WW-242	9.715597	327.326750
WW-242	9.848594	28.270000
WW-242	9.981593	67.230781
WW-242	10.114592	154.529980
WW-242	10.247597	193.898754
WW-242	10.380594	174.494479
WW-242	10.513596	153.274559
WW-242	10.646593	28.270000
WW-242	10.779592	83.757793
WW-242	10.912592	28.270000
WW-242	11.178592	28.270000
WW-242	11.311590	28.343427
WW-242	11.444592	28.270000
WW-242	11.577592	28.270000
WW-242	11.710592	28.314056
WW-242	11.843591	28.270000
WW-242	11.976591	28.299371
WW-242	12.109591	28.270000
WW-242	12.242591	28.270000
WW-242	12.375591	28.299371
WW-242	12.508592	28.270000
WW-242	12.641589	28.387484
WW-242	12.774585	29.165826
WW-242	12.907489	42.099319
WW-242	13.039870	159.337435
WW-242	13.170205	28.270000
; 
WW-243	STORAGE	1.158044	124.065767
WW-243	1.322044	28.270000
WW-243	1.486044	28.270000
WW-243	1.650044	28.275097
WW-243	1.814044	28.270000
WW-243	1.978045	28.270000
WW-243	2.142043	28.274519
WW-243	2.306043	28.270000
WW-243	2.470043	28.270000
WW-243	2.634043	28.270192
WW-243	2.798043	28.272286
WW-243	2.962044	28.270000
WW-243	3.126043	28.286640
WW-243	3.290044	28.270000
WW-243	3.454044	28.270000
WW-243	3.618045	29.896398
WW-243	3.782049	42.371158
WW-243	3.946050	247.028775
WW-243	4.110050	68.017365
WW-243	4.274049	205.111041
WW-243	4.438046	28.270000
WW-243	4.602045	29.070432
WW-243	4.766046	72.380341
WW-243	4.930054	366.179859
WW-243	5.094055	119.693206
WW-243	5.258054	302.547076
WW-243	5.422045	28.270000
WW-243	5.586051	104.951374
WW-243	5.750052	225.231516
WW-243	5.914052	127.837271
WW-243	6.078050	172.065169
WW-243	6.242045	28.270000
WW-243	6.570044	28.270000
WW-243	6.734052	204.316420
WW-243	6.898053	157.378308
WW-243	7.062051	201.854866
WW-243	7.226049	62.620526
WW-243	7.390044	28.270000
WW-243	7.554045	30.943036
WW-243	7.718046	74.809492
WW-243	7.882056	483.228698
WW-243	8.046060	319.602827
WW-243	8.210059	544.291644
WW-243	8.374051	28.270000
WW-243	8.538049	313.587240
WW-243	8.702043	28.270000
WW-243	8.866043	28.270000
WW-243	9.030044	28.388897
WW-243	9.194044	28.951034
WW-243	9.358041	33.437206
WW-243	9.522056	463.264268
WW-243	9.686063	519.595433
WW-243	9.850062	459.061987
WW-243	10.014057	259.519954
WW-243	10.178046	28.270000
WW-243	10.506044	28.270000
WW-243	10.670043	28.293819
WW-243	10.834044	28.270000
WW-243	10.998043	28.689014
WW-243	11.162047	90.638597
WW-243	11.326051	224.331967
WW-243	11.490053	257.915644
WW-243	11.654051	217.917465
WW-243	11.818051	131.676156
WW-243	11.982050	174.348147
WW-243	12.146048	92.256473
WW-243	12.310047	161.949299
WW-243	12.474046	28.270000
WW-243	12.638044	28.270000
WW-243	12.802042	34.059863
WW-243	12.966046	89.903831
WW-243	13.130047	56.172325
WW-243	13.294046	85.766092
WW-243	13.458046	28.270000
WW-243	14.278046	28.270000
WW-243	14.442049	172.643461
WW-243	14.606079	28.270000
WW-243	16.242989	28.270000
; 
WW-246	STORAGE	1.190203	340.115802
WW-246	1.386203	28.270000
WW-246	1.582203	28.270000
WW-246	1.778203	28.271214
WW-246	1.974203	28.275698
WW-246	2.170204	28.270000
WW-246	2.366203	28.271499
WW-246	2.562203	28.272022
WW-246	2.758204	28.270000
WW-246	2.954203	28.277555
WW-246	3.150203	28.270000
WW-246	3.934208	28.270000
WW-246	4.130212	204.540169
WW-246	4.326211	40.976260
WW-246	4.522223	494.707450
WW-246	4.718221	109.730953
WW-246	4.914216	256.165339
WW-246	5.110213	28.270000
WW-246	5.306213	262.595730
WW-246	5.502210	28.270000
WW-246	5.698215	144.161171
WW-246	5.894215	258.654947
WW-246	6.090225	361.126253
WW-246	6.286220	138.792678
WW-246	6.482214	302.036567
WW-246	6.678208	28.270000
WW-246	7.070207	28.270000
WW-246	7.266218	191.388895
WW-246	7.462219	254.250317
WW-246	7.658214	156.375084
WW-246	7.854208	28.270000
WW-246	8.050212	124.712554
WW-246	8.246212	194.339536
WW-246	8.442213	112.734717
WW-246	8.638206	37.721319
WW-246	8.834204	28.270000
WW-246	9.030216	207.608311
WW-246	9.226221	370.162007
WW-246	9.422221	258.822957
WW-246	9.618214	130.656782
WW-246	9.814211	133.722286
WW-246	10.010202	28.270000
WW-246	10.206230	578.572634
WW-246	10.402231	370.135753
WW-246	10.598225	473.768933
WW-246	10.794231	242.544555
WW-246	10.990234	716.620812
WW-246	11.186234	261.909806
WW-246	11.382223	360.406914
WW-246	11.578205	28.270000
WW-246	11.774220	296.341898
WW-246	11.970227	312.969121
WW-246	12.166224	351.386625
WW-246	12.362222	222.221600
WW-246	12.558226	354.628750
WW-246	12.754230	339.171043
WW-246	12.950237	516.649411
WW-246	13.146234	328.111340
WW-246	13.342234	414.736212
WW-246	13.538226	172.866125
WW-246	13.734221	272.959035
WW-246	13.930216	28.270000
WW-246	14.126215	91.289835
WW-246	14.322217	139.808417
WW-246	14.518216	98.730574
WW-246	14.714216	151.696530
WW-246	14.910230	382.347238
WW-246	15.106228	310.694098
WW-246	15.302224	250.756504
WW-246	15.498212	28.270000
WW-246	15.890209	28.270000
WW-246	16.086216	224.187495
WW-246	16.282221	196.169725
WW-246	16.478197	85.498390
WW-246	16.674173	325.208689
WW-246	16.870171	28.270000
WW-246	17.066170	246.785133
WW-246	17.262171	28.270000
WW-246	17.458172	129.688223
WW-246	17.654182	28.270000
WW-246	18.634214	28.270000
WW-246	18.830238	31.677588
WW-246	19.026316	28.270000
WW-246	19.415445	28.270000
; 
WW-247	STORAGE	1.104219	87.458466
WW-247	1.286219	12.570000
WW-247	1.468219	13.348828
WW-247	1.650219	14.265876
WW-247	1.832219	15.462340
WW-247	2.014219	12.570000
WW-247	2.196228	102.759472
WW-247	2.378232	120.989142
WW-247	2.560236	203.791367
WW-247	2.742241	363.930804
WW-247	2.924240	402.492733
WW-247	3.106236	352.027384
WW-247	3.288230	55.741622
WW-247	3.470220	12.570000
WW-247	3.652219	12.570000
WW-247	3.834219	12.578048
WW-247	4.016218	12.583414
WW-247	4.198217	12.570000
WW-247	5.108218	12.570000
WW-247	5.290217	12.586097
WW-247	5.472218	12.570000
WW-247	6.018218	12.570000
WW-247	6.200218	12.580731
WW-247	6.382218	12.570000
WW-247	6.564218	12.575365
WW-247	6.746218	12.570000
WW-247	6.928217	12.575365
WW-247	7.110218	12.570000
WW-247	7.292218	12.575365
WW-247	7.474217	12.575146
WW-247	7.656218	12.570000
WW-247	7.838218	12.579409
WW-247	8.020221	12.570000
WW-247	8.930217	12.570000
WW-247	9.112230	155.614707
WW-247	9.294230	109.750159
WW-247	9.476238	234.425310
WW-247	9.658232	116.469504
WW-247	9.840228	142.059738
WW-247	10.022227	67.400755
WW-247	10.204222	12.570000
WW-247	10.386221	12.570000
WW-247	10.568219	12.580021
WW-247	10.750221	12.570000
WW-247	10.932220	12.645966
WW-247	11.114220	13.131800
WW-247	11.296222	19.579580
WW-247	11.478220	12.570000
WW-247	11.660229	174.858652
WW-247	11.842230	67.204873
WW-247	12.024229	152.825461
WW-247	12.206223	12.570000
WW-247	12.570220	12.570000
WW-247	12.752231	346.911031
WW-247	12.934233	142.768763
WW-247	13.116232	305.749291
WW-247	13.298223	12.570000
WW-247	13.662221	12.570000
WW-247	13.844221	12.602194
WW-247	14.026221	12.570000
WW-247	18.027689	12.570000
; 
WW-250	STORAGE	1.102969	132.065554
WW-250	1.239969	12.570000
WW-250	1.376969	12.570000
WW-250	1.513969	12.572520
WW-250	1.650969	12.570000
WW-250	1.787969	12.574218
WW-250	1.924968	12.570000
WW-250	2.061968	12.756937
WW-250	2.198969	12.570000
WW-250	2.335966	12.570000
WW-250	2.472973	252.304866
WW-250	2.609974	85.113444
WW-250	2.746974	251.066796
WW-250	2.883973	23.467787
WW-250	3.020969	43.301008
WW-250	3.157968	12.570000
WW-250	3.294968	12.570000
WW-250	3.431969	12.590145
WW-250	3.568968	12.570000
WW-250	3.705968	12.570000
WW-250	3.842976	364.476612
WW-250	3.979977	248.822433
WW-250	4.116978	379.160674
WW-250	4.253978	152.337662
WW-250	4.390971	31.510281
WW-250	4.527969	12.570000
WW-250	5.075967	12.570000
WW-250	5.212977	304.049847
WW-250	5.349976	222.227486
WW-250	5.486977	148.602361
WW-250	5.623977	140.176470
WW-250	5.760972	12.570000
WW-250	5.897969	12.570000
WW-250	6.034969	23.618031
WW-250	6.171975	337.034487
WW-250	6.308981	375.348594
WW-250	6.445981	424.155717
WW-250	6.582979	291.892093
WW-250	6.719976	114.911447
WW-250	6.856974	155.186896
WW-250	6.993972	12.570000
WW-250	7.130971	98.424714
WW-250	7.267973	47.092825
WW-250	7.404974	133.404289
WW-250	7.541974	48.905000
WW-250	7.678974	128.295518
WW-250	7.815972	12.570000
WW-250	7.952968	15.101477
WW-250	8.089972	12.570000
WW-250	8.226974	25.347825
WW-250	8.363974	69.011337
WW-250	8.500973	48.976925
WW-250	8.637978	123.374746
WW-250	8.774979	250.716200
WW-250	8.911979	121.393309
WW-250	9.048977	218.634941
WW-250	9.185977	55.990018
WW-250	9.322972	12.570000
WW-250	9.459973	24.501518
WW-250	9.596974	118.825189
WW-250	9.733976	59.873133
WW-250	9.870976	122.580486
WW-250	10.007975	32.738988
WW-250	10.144974	41.572177
WW-250	10.281974	12.570000
WW-250	10.418973	13.462523
WW-250	10.555973	30.664980
WW-250	10.692977	156.573092
WW-250	10.829977	55.828336
WW-250	10.966974	86.652902
WW-250	11.103974	12.570000
WW-250	11.377975	12.570000
WW-250	11.514975	12.584256
WW-250	11.651975	12.570000
WW-250	11.788973	12.612769
WW-250	11.925974	12.570000
WW-250	12.199971	12.570000
WW-250	12.336973	106.304381
WW-250	12.473960	12.570000
WW-250	13.566828	12.570000
; 
WW-251	STORAGE	1.058468	134.393357
WW-251	1.208468	28.270000
WW-251	1.358468	28.271631
WW-251	1.508468	28.270000
WW-251	1.958468	28.270000
WW-251	2.108467	28.281391
WW-251	2.258467	28.270000
WW-251	2.408468	28.270000
WW-251	2.558467	28.283025
WW-251	2.708467	28.270000
WW-251	3.158468	28.270004
WW-251	3.308467	28.276358
WW-251	3.458467	28.270000
WW-251	3.758467	28.270000
WW-251	3.908467	33.292255
WW-251	4.058473	44.908452
WW-251	4.208473	230.761385
WW-251	4.358477	101.108229
WW-251	4.508478	312.233652
WW-251	4.658477	46.777262
WW-251	4.808475	242.439872
WW-251	4.958473	28.270000
WW-251	5.108471	147.188711
WW-251	5.258472	28.270000
WW-251	5.408471	130.198106
WW-251	5.558476	128.260614
WW-251	5.708484	589.669067
WW-251	5.858483	192.927519
WW-251	6.008483	510.131430
WW-251	6.158478	28.270000
WW-251	6.308471	65.062520
WW-251	6.458471	28.270000
WW-251	6.608470	30.009592
WW-251	6.758474	96.539119
WW-251	6.908476	280.291824
WW-251	7.058492	752.813273
WW-251	7.208493	560.924542
WW-251	7.358489	580.186677
WW-251	7.508485	246.527517
WW-251	7.658474	28.270000
WW-251	7.808472	28.270000
WW-251	7.958480	391.757359
WW-251	8.108477	137.686441
WW-251	8.258475	377.201113
WW-251	8.408479	140.468050
WW-251	8.558475	186.099893
WW-251	8.708481	472.953219
WW-251	8.858480	244.787323
WW-251	9.008482	458.958543
WW-251	9.158479	181.698226
WW-251	9.308481	395.770373
WW-251	9.458480	186.889621
WW-251	9.608480	398.033940
WW-251	9.758477	80.274599
WW-251	9.908479	369.789333
WW-251	10.058479	84.315100
WW-251	10.208478	298.264387
WW-251	10.358479	76.514610
WW-251	10.508476	194.442280
WW-251	10.658475	28.270000
WW-251	10.808474	114.249108
WW-251	10.958476	112.213392
WW-251	11.108480	290.496232
WW-251	11.258481	173.679850
WW-251	11.408479	216.893720
WW-251	11.558476	28.270000
WW-251	11.708474	78.276816
WW-251	11.858477	35.625772
WW-251	12.008476	195.225483
WW-251	12.158477	64.216169
WW-251	12.308477	178.818381
WW-251	12.458473	28.270000
WW-251	12.758473	28.270000
WW-251	12.908473	28.335105
WW-251	13.058474	28.270000
WW-251	13.358474	28.270000
WW-251	13.508473	28.361147
WW-251	13.658479	31.212601
WW-251	13.808456	28.270000
WW-251	13.958449	29.858617
WW-251	14.108520	28.270000
WW-251	14.855265	28.270000

[TIMESERIES]
;  NWS S - B January Daily
TIMESERI-1	1/1/2002	0	0.000000
TIMESERI-1	1/2/2002	0	0.550000
TIMESERI-1	1/3/2002	0	0.170000
TIMESERI-1	1/4/2002	0	0.000000
TIMESERI-1	1/5/2002	0	0.000000
TIMESERI-1	1/6/2002	0	0.110000
TIMESERI-1	1/7/2002	0	0.030000
TIMESERI-1	1/8/2002	0	0.000000
TIMESERI-1	1/12/2002	0	0.000000
TIMESERI-1	1/13/2002	0	0.270000
TIMESERI-1	1/14/2002	0	0.900000
TIMESERI-1	1/15/2002	0	0.210000
TIMESERI-1	1/16/2002	0	0.000000
TIMESERI-1	1/17/2002	0	0.005000
TIMESERI-1	1/18/2002	0	0.000000
TIMESERI-1	1/26/2002	0	0.000000
TIMESERI-1	1/27/2002	0	0.005000
TIMESERI-1	1/28/2002	0	0.000000
TIMESERI-1	1/29/2002	0	0.000000
TIMESERI-1	1/30/2002	0	0.005000
TIMESERI-1	1/31/2002	0	0.010000

; 0.1 foot intervals
WW-147_BC_TS	1/1/2000	0:00	9.500000
WW-147_BC_TS	1/1/2000	1:00	9.400000
WW-147_BC_TS	1/1/2000	2:00	9.300000
WW-147_BC_TS	1/1/2000	3:00	9.200000
WW-147_BC_TS	1/1/2000	4:00	9.100000
WW-147_BC_TS	1/1/2000	5:00	9.000000
WW-147_BC_TS	1/1/2000	6:00	8.900000
WW-147_BC_TS	1/1/2000	7:00	8.800000
WW-147_BC_TS	1/1/2000	8:00	8.700000
WW-147_BC_TS	1/1/2000	9:00	8.600000
WW-147_BC_TS	1/1/2000	10:00	8.500000
WW-147_BC_TS	1/1/2000	11:00	8.400000
WW-147_BC_TS	1/1/2000	12:00	8.300000
WW-147_BC_TS	1/1/2000	13:00	8.200000
WW-147_BC_TS	1/1/2000	14:00	8.100000
WW-147_BC_TS	1/1/2000	15:00	8.000000
WW-147_BC_TS	1/1/2000	16:00	7.900000
WW-147_BC_TS	1/1/2000	17:00	7.800000
WW-147_BC_TS	1/1/2000	18:00	7.700000
WW-147_BC_TS	1/1/2000	19:00	7.600000
WW-147_BC_TS	1/1/2000	20:00	7.500000
WW-147_BC_TS	1/1/2000	21:00	7.400000
WW-147_BC_TS	1/1/2000	22:00	7.300000
WW-147_BC_TS	1/1/2000	23:00	7.200000
WW-147_BC_TS	1/2/2000	0:00	7.100000
WW-147_BC_TS	1/2/2000	1:00	7.000000
WW-147_BC_TS	1/2/2000	2:00	6.900000
WW-147_BC_TS	1/2/2000	3:00	6.800000
WW-147_BC_TS	1/2/2000	4:00	6.700000
WW-147_BC_TS	1/2/2000	5:00	6.600000
WW-147_BC_TS	1/2/2000	6:00	6.500000
WW-147_BC_TS	1/2/2000	7:00	6.400000
WW-147_BC_TS	1/2/2000	8:00	6.300000
WW-147_BC_TS	1/2/2000	9:00	6.200000
WW-147_BC_TS	1/2/2000	10:00	6.100000
WW-147_BC_TS	1/2/2000	11:00	6.000000
WW-147_BC_TS	1/2/2000	12:00	5.900000
WW-147_BC_TS	1/2/2000	13:00	5.800000
WW-147_BC_TS	1/2/2000	14:00	5.700000
WW-147_BC_TS	1/2/2000	15:00	5.600000
WW-147_BC_TS	1/2/2000	16:00	5.500000
WW-147_BC_TS	1/2/2000	17:00	5.400000
WW-147_BC_TS	1/2/2000	18:00	5.300000
WW-147_BC_TS	1/2/2000	19:00	5.200000
WW-147_BC_TS	1/2/2000	20:00	5.100000
WW-147_BC_TS	1/2/2000	21:00	5.000000
WW-147_BC_TS	1/2/2000	22:00	4.900000
WW-147_BC_TS	1/2/2000	23:00	4.800000
WW-147_BC_TS	1/3/2000	0:00	4.700000
WW-147_BC_TS	1/3/2000	1:00	4.600000
WW-147_BC_TS	1/3/2000	2:00	4.500000
WW-147_BC_TS	1/3/2000	3:00	4.400000
WW-147_BC_TS	1/3/2000	4:00	4.300000
WW-147_BC_TS	1/3/2000	5:00	4.200000
WW-147_BC_TS	1/3/2000	6:00	4.100000
WW-147_BC_TS	1/3/2000	7:00	4.000000
WW-147_BC_TS	1/3/2000	8:00	3.900000
WW-147_BC_TS	1/3/2000	9:00	3.800000
WW-147_BC_TS	1/3/2000	10:00	3.700000
WW-147_BC_TS	1/3/2000	11:00	3.600000
WW-147_BC_TS	1/3/2000	12:00	3.500000
WW-147_BC_TS	1/3/2000	13:00	3.400000
WW-147_BC_TS	1/3/2000	14:00	3.300000
WW-147_BC_TS	1/3/2000	15:00	3.200000
WW-147_BC_TS	1/3/2000	16:00	3.100000
WW-147_BC_TS	1/3/2000	17:00	3.000000
WW-147_BC_TS	1/3/2000	18:00	2.900000
WW-147_BC_TS	1/3/2000	19:00	2.800000
WW-147_BC_TS	1/3/2000	20:00	2.700000
WW-147_BC_TS	1/3/2000	21:00	2.600000
WW-147_BC_TS	1/3/2000	22:00	2.500000
WW-147_BC_TS	1/3/2000	23:00	2.400000
WW-147_BC_TS	1/4/2000	0:00	2.300000
WW-147_BC_TS	1/4/2000	1:00	2.200000
WW-147_BC_TS	1/4/2000	2:00	2.100000
WW-147_BC_TS	1/4/2000	3:00	2.000000
WW-147_BC_TS	1/4/2000	4:00	1.900000
WW-147_BC_TS	1/4/2000	5:00	1.800000
WW-147_BC_TS	1/4/2000	6:00	1.700000
WW-147_BC_TS	1/4/2000	7:00	1.600000
WW-147_BC_TS	1/4/2000	8:00	1.500000
WW-147_BC_TS	1/4/2000	9:00	1.400000
WW-147_BC_TS	1/4/2000	10:00	1.300000
WW-147_BC_TS	1/4/2000	11:00	1.200000
WW-147_BC_TS	1/4/2000	12:00	1.100000
WW-147_BC_TS	1/4/2000	13:00	1.000000
WW-147_BC_TS	1/4/2000	14:00	0.900000
WW-147_BC_TS	1/4/2000	15:00	0.800000
WW-147_BC_TS	1/4/2000	16:00	0.700000
WW-147_BC_TS	1/4/2000	17:00	0.600000
WW-147_BC_TS	1/4/2000	18:00	0.500000
WW-147_BC_TS	1/4/2000	19:00	0.400000
WW-147_BC_TS	1/4/2000	20:00	0.300000
WW-147_BC_TS	1/4/2000	21:00	0.200000
WW-147_BC_TS	1/4/2000	22:00	0.100000
WW-147_BC_TS	1/4/2000	23:00	0.000000
WW-147_BC_TS	1/5/2000	0:00	-0.100000
WW-147_BC_TS	1/5/2000	1:00	-0.200000
WW-147_BC_TS	1/5/2000	2:00	-0.300000
WW-147_BC_TS	1/5/2000	3:00	-0.400000
WW-147_BC_TS	1/5/2000	4:00	-0.500000
WW-147_BC_TS	1/5/2000	5:00	-0.600000
WW-147_BC_TS	1/5/2000	6:00	-0.700000
WW-147_BC_TS	1/5/2000	7:00	-0.800000
WW-147_BC_TS	1/5/2000	8:00	-0.900000
WW-147_BC_TS	1/5/2000	9:00	-1.000000
WW-147_BC_TS	1/5/2000	10:00	-1.100000
WW-147_BC_TS	1/5/2000	11:00	-1.200000
WW-147_BC_TS	1/5/2000	12:00	-1.300000
WW-147_BC_TS	1/5/2000	13:00	-1.400000
WW-147_BC_TS	1/5/2000	14:00	-1.500000
WW-147_BC_TS	1/5/2000	15:00	-1.600000
WW-147_BC_TS	1/5/2000	16:00	-1.700000
WW-147_BC_TS	1/5/2000	17:00	-1.800000
WW-147_BC_TS	1/5/2000	18:00	-1.900000
WW-147_BC_TS	1/5/2000	19:00	-2.000000
WW-147_BC_TS	1/5/2000	20:00	-2.100000
WW-147_BC_TS	1/5/2000	21:00	-2.200000
WW-147_BC_TS	1/5/2000	22:00	-2.300000
WW-147_BC_TS	1/5/2000	23:00	-2.400000
WW-147_BC_TS	1/6/2000	0:00	-2.500000
WW-147_BC_TS	1/6/2000	1:00	-2.600000
WW-147_BC_TS	1/6/2000	2:00	-2.700000
WW-147_BC_TS	1/6/2000	3:00	-2.800000
WW-147_BC_TS	1/6/2000	4:00	-2.900000
WW-147_BC_TS	1/6/2000	5:00	-3.000000
WW-147_BC_TS	1/6/2000	6:00	-3.100000
WW-147_BC_TS	1/6/2000	7:00	-3.200000
WW-147_BC_TS	1/6/2000	8:00	-3.300000
WW-147_BC_TS	1/6/2000	9:00	-3.400000
WW-147_BC_TS	1/6/2000	10:00	-3.500000
WW-147_BC_TS	1/6/2000	11:00	-3.600000
WW-147_BC_TS	1/6/2000	12:00	-3.700000
WW-147_BC_TS	1/6/2000	13:00	-3.800000
WW-147_BC_TS	1/6/2000	14:00	-3.900000
WW-147_BC_TS	1/6/2000	15:00	-4.000000
WW-147_BC_TS	1/6/2000	16:00	-4.100000
WW-147_BC_TS	1/6/2000	17:00	-4.200000
WW-147_BC_TS	1/6/2000	18:00	-4.300000
WW-147_BC_TS	1/6/2000	19:00	-4.400000
WW-147_BC_TS	1/6/2000	20:00	-4.500000
WW-147_BC_TS	1/6/2000	21:00	-4.600000
WW-147_BC_TS	1/6/2000	22:00	-4.700000
WW-147_BC_TS	1/6/2000	23:00	-4.800000
WW-147_BC_TS	1/7/2000	0:00	-4.900000
WW-147_BC_TS	1/7/2000	1:00	-5.000000
WW-147_BC_TS	1/7/2000	2:00	-5.100000
WW-147_BC_TS	1/7/2000	3:00	-5.200000
WW-147_BC_TS	1/7/2000	4:00	-5.300000
WW-147_BC_TS	1/7/2000	5:00	-5.400000
WW-147_BC_TS	1/7/2000	6:00	-5.500000
WW-147_BC_TS	1/7/2000	7:00	-5.600000
WW-147_BC_TS	1/7/2000	8:00	-5.700000
WW-147_BC_TS	1/7/2000	9:00	-5.800000
WW-147_BC_TS	1/7/2000	10:00	-5.900000
WW-147_BC_TS	1/7/2000	11:00	-6.000000
WW-147_BC_TS	1/7/2000	12:00	-6.100000
WW-147_BC_TS	1/7/2000	13:00	-6.200000
WW-147_BC_TS	1/7/2000	14:00	-6.300000
WW-147_BC_TS	1/7/2000	15:00	-6.400000
WW-147_BC_TS	1/7/2000	16:00	-6.500000
WW-147_BC_TS	1/7/2000	17:00	-6.600000
WW-147_BC_TS	1/7/2000	18:00	-6.700000
WW-147_BC_TS	1/7/2000	19:00	-6.800000
WW-147_BC_TS	1/7/2000	20:00	-6.900000
WW-147_BC_TS	1/7/2000	21:00	-7.000000
WW-147_BC_TS	1/7/2000	22:00	-7.100000
WW-147_BC_TS	1/7/2000	23:00	-7.200000
WW-147_BC_TS	1/8/2000	0:00	-7.300000
WW-147_BC_TS	1/8/2000	1:00	-7.400000
WW-147_BC_TS	1/8/2000	2:00	-7.500000
WW-147_BC_TS	1/8/2000	3:00	-7.600000
WW-147_BC_TS	1/8/2000	4:00	-7.700000
WW-147_BC_TS	1/8/2000	5:00	-7.800000
WW-147_BC_TS	1/8/2000	6:00	-7.900000
WW-147_BC_TS	1/8/2000	7:00	-8.000000
WW-147_BC_TS	1/8/2000	8:00	-8.100000
WW-147_BC_TS	1/8/2000	9:00	-8.200000
WW-147_BC_TS	1/8/2000	10:00	-8.300000
WW-147_BC_TS	1/8/2000	11:00	-8.400000
WW-147_BC_TS	1/8/2000	12:00	-8.500000
WW-147_BC_TS	1/8/2000	13:00	-8.600000
WW-147_BC_TS	1/8/2000	14:00	-8.700000
WW-147_BC_TS	1/8/2000	15:00	-8.800000
WW-147_BC_TS	1/8/2000	16:00	-8.900000
WW-147_BC_TS	1/8/2000	17:00	-9.000000
WW-147_BC_TS	1/8/2000	18:00	-9.100000
WW-147_BC_TS	1/8/2000	19:00	-9.200000
WW-147_BC_TS	1/8/2000	20:00	-9.300000
WW-147_BC_TS	1/8/2000	21:00	-9.400000
WW-147_BC_TS	1/8/2000	22:00	-9.500000
WW-147_BC_TS	1/8/2000	23:00	-9.600000
WW-147_BC_TS	1/9/2000	0:00	-9.700000
WW-147_BC_TS	1/9/2000	1:00	-9.800000
WW-147_BC_TS	1/9/2000	2:00	-9.900000
WW-147_BC_TS	1/9/2000	3:00	-10.000000
WW-147_BC_TS	1/9/2000	4:00	-10.100000
WW-147_BC_TS	1/9/2000	5:00	-10.200000
WW-147_BC_TS	1/9/2000	6:00	-10.300000
WW-147_BC_TS	1/9/2000	7:00	-10.400000
WW-147_BC_TS	1/9/2000	8:00	-10.500000
WW-147_BC_TS	1/9/2000	9:00	-10.600000
WW-147_BC_TS	1/9/2000	10:00	-10.700000

; 0.5 foot intervals
WW-147_BC_TS_02	1/1/2000	0:00	9.500000
WW-147_BC_TS_02	1/1/2000	1:00	9.000000
WW-147_BC_TS_02	1/1/2000	2:00	8.500000
WW-147_BC_TS_02	1/1/2000	3:00	8.000000
WW-147_BC_TS_02	1/1/2000	4:00	7.500000
WW-147_BC_TS_02	1/1/2000	5:00	7.000000
WW-147_BC_TS_02	1/1/2000	6:00	6.500000
WW-147_BC_TS_02	1/1/2000	7:00	6.000000
WW-147_BC_TS_02	1/1/2000	8:00	5.500000
WW-147_BC_TS_02	1/1/2000	9:00	5.000000
WW-147_BC_TS_02	1/1/2000	10:00	4.500000
WW-147_BC_TS_02	1/1/2000	11:00	4.000000
WW-147_BC_TS_02	1/1/2000	12:00	3.500000
WW-147_BC_TS_02	1/1/2000	13:00	3.000000
WW-147_BC_TS_02	1/1/2000	14:00	2.500000
WW-147_BC_TS_02	1/1/2000	15:00	2.000000
WW-147_BC_TS_02	1/1/2000	16:00	1.500000
WW-147_BC_TS_02	1/1/2000	17:00	1.000000
WW-147_BC_TS_02	1/1/2000	18:00	0.500000
WW-147_BC_TS_02	1/1/2000	19:00	0.000000
WW-147_BC_TS_02	1/1/2000	20:00	-0.500000
WW-147_BC_TS_02	1/1/2000	21:00	-1.000000
WW-147_BC_TS_02	1/1/2000	22:00	-1.500000
WW-147_BC_TS_02	1/1/2000	23:00	-2.000000
WW-147_BC_TS_02	1/2/2000	0:00	-2.500000
WW-147_BC_TS_02	1/2/2000	1:00	-3.000000
WW-147_BC_TS_02	1/2/2000	2:00	-3.500000
WW-147_BC_TS_02	1/2/2000	3:00	-4.000000
WW-147_BC_TS_02	1/2/2000	4:00	-4.500000
WW-147_BC_TS_02	1/2/2000	5:00	-5.000000
WW-147_BC_TS_02	1/2/2000	6:00	-5.500000
WW-147_BC_TS_02	1/2/2000	7:00	-6.000000
WW-147_BC_TS_02	1/2/2000	8:00	-6.500000
WW-147_BC_TS_02	1/2/2000	9:00	-7.000000
WW-147_BC_TS_02	1/2/2000	10:00	-7.500000
WW-147_BC_TS_02	1/2/2000	11:00	-8.000000
WW-147_BC_TS_02	1/2/2000	12:00	-8.500000
WW-147_BC_TS_02	1/2/2000	13:00	-9.000000
WW-147_BC_TS_02	1/2/2000	14:00	-9.500000
WW-147_BC_TS_02	1/2/2000	15:00	-10.000000
WW-147_BC_TS_02	1/2/2000	16:00	-10.500000
WW-147_BC_TS_02	1/2/2000	17:00	-10.700000

; 0.5-foot intervals
WW-232_BC_TS	1/1/2000	0:00	7.000000
WW-232_BC_TS	1/1/2000	1:00	6.500000
WW-232_BC_TS	1/1/2000	2:00	6.000000
WW-232_BC_TS	1/1/2000	3:00	5.500000
WW-232_BC_TS	1/1/2000	4:00	5.000000
WW-232_BC_TS	1/1/2000	5:00	4.500000
WW-232_BC_TS	1/1/2000	6:00	4.000000
WW-232_BC_TS	1/1/2000	7:00	3.500000
WW-232_BC_TS	1/1/2000	8:00	3.000000
WW-232_BC_TS	1/1/2000	9:00	2.500000
WW-232_BC_TS	1/1/2000	10:00	2.000000
WW-232_BC_TS	1/1/2000	11:00	1.500000
WW-232_BC_TS	1/1/2000	12:00	1.000000
WW-232_BC_TS	1/1/2000	13:00	0.500000
WW-232_BC_TS	1/1/2000	14:00	0.000000
WW-232_BC_TS	1/1/2000	15:00	-0.500000
WW-232_BC_TS	1/1/2000	16:00	-1.000000
WW-232_BC_TS	1/1/2000	17:00	-1.500000
WW-232_BC_TS	1/1/2000	18:00	-2.000000
WW-232_BC_TS	1/1/2000	19:00	-2.500000
WW-232_BC_TS	1/1/2000	20:00	-3.000000
WW-232_BC_TS	1/1/2000	21:00	-3.500000
WW-232_BC_TS	1/1/2000	22:00	-4.000000
WW-232_BC_TS	1/1/2000	23:00	-4.500000
WW-232_BC_TS	1/2/2000	0:00	-5.000000
WW-232_BC_TS	1/2/2000	1:00	-5.500000
WW-232_BC_TS	1/2/2000	2:00	-6.000000
WW-232_BC_TS	1/2/2000	3:00	-6.500000
WW-232_BC_TS	1/2/2000	4:00	-7.000000
WW-232_BC_TS	1/2/2000	5:00	-7.500000
WW-232_BC_TS	1/2/2000	6:00	-8.000000
WW-232_BC_TS	1/2/2000	7:00	-8.500000
WW-232_BC_TS	1/2/2000	8:00	-9.000000
WW-232_BC_TS	1/2/2000	9:00	-9.500000
WW-232_BC_TS	1/2/2000	10:00	-10.000000


[PATTERNS]
; 
COMMERCIAL	HOURLY	0.000000	0.000000	0.000000	0.000000	0.000000
COMMERCIAL	0.000000	0.000000	0.000000	0.000000	1.199520
COMMERCIAL	1.199520	1.100160	0.999360	0.999360	0.900000
COMMERCIAL	0.900000	0.999360	1.100160	1.300320	1.300320
COMMERCIAL	0.000000	0.000000	0.000000	0.000000
; 
DIURNAL	HOURLY	0.600480	0.499680	0.400320	0.400320	0.499680
DIURNAL	0.600480	1.100160	1.399680	1.300320	1.199520
DIURNAL	1.199520	1.100160	0.999360	0.999360	0.900000
DIURNAL	0.900000	0.999360	1.100160	1.300320	1.300320
DIURNAL	1.399680	1.399680	1.300320	0.900000
; 
WEEKDAY	DAILY	0.000000	1.000000	1.000000	1.000000	1.000000
WEEKDAY	1.000000	0.000000
; 
WEEKEND	DAILY	1.000000	0.000000	0.000000	0.000000	0.000000
WEEKEND	0.000000	1.000000

[REPORT]
;Report Option Set: BASE, Base Simulation Report
INPUT NO
CONTINUITY YES
FLOWSTATS YES
CONTROLS NO
SUBCATCHMENTS  ALL
NODES  ALL
LINKS  ALL

[COORDINATES]
J-1002-OUT	446067.170000	1153345.590000
J-1003-OUT	445118.820000	1153888.800000
J-147-OUT	443646.900000	1156817.560000
J-220-OUT	448675.520000	1153982.760000
J-221-OUT	448518.140000	1158211.080000
J-222-OUT	447389.530000	1160107.330000
J-223-OUT	447011.940000	1159387.520000
J-224-OUT	450890.413036	1157237.671072
J-225-OUT	452469.090000	1154107.960000
J-226-OUT	452784.670000	1152645.170000
J-227-OUT	453320.660000	1152509.430000
J-228-OUT	457077.240000	1152204.940000
J-229-OUT	455211.300000	1155678.290000
J-230-OUT	455544.023281	1154932.756190
J-231-OUT	456392.690000	1154742.970000
J-232-OUT	457098.840000	1153309.780000
J-242-OUT	445472.600000	1159012.340000
J-243-OUT	447184.050000	1156060.030000
J-246-OUT	445835.030000	1154170.470000
J-247-OUT	446906.580000	1152511.470000
J-250-OUT	444378.870000	1155719.960000
J-251-OUT	443933.840000	1155333.220000
J-258-OUT	451194.250000	1153338.930000
JN_824_1	443656.000000	1156773.000000
JN_824_10	444403.800000	1156772.000000
JN_824_2	443937.600000	1155378.000000
JN_824_20	445526.800000	1158985.000000
JN_824_21	445829.300000	1154114.560000
JN_824_22	446048.900000	1154115.000000
JN_824_25	446912.800000	1154105.000000
JN_824_26	447181.500000	1155746.000000
JN_824_8	444403.800000	1155724.000000
JN_825_10	446891.300000	1152523.000000
JN_825_6	445130.640000	1153893.270000
JN_825_7	446022.600000	1153345.000000
JN_919_22	450828.200000	1156673.000000
JN_919_26	450880.800000	1157009.000000
JN_919_3	447269.700000	1159374.000000
JN_919_9	448724.700000	1158163.000000
JN_920_1	452498.400000	1154009.000000
JN_920_12	455523.400000	1154936.440000
JN_920_23	456383.200000	1154746.000000
JN_929_19	455080.300000	1152794.000000
JN_929_40	456941.000000	1152186.000000
JN_929_43	457111.700000	1153272.000000
JN_929_5	453749.100000	1152501.000000
JN_930_16	448684.800000	1154041.000000
JN_930_19	449847.700000	1154014.000000
JN_930_24	451165.200000	1153329.000000
JN_930_28	451174.800000	1153993.000000
JN_930_38	452479.500000	1152629.000000
JX-6929	447277.000000	1160036.000000
MH_813_1	446610.700000	1159413.000000
MH_813_2	446721.200000	1159422.000000
MH_813_3	446842.600000	1159393.000000
MH_824_1	442137.100000	1157286.000000
MH_824_10	442943.800000	1157025.000000
MH_824_100	446046.800000	1156224.000000
MH_824_101	446056.000000	1155792.000000
MH_824_102	446080.400000	1155290.000000
MH_824_103	446085.200000	1156546.000000
MH_824_104	446096.400000	1155159.000000
MH_824_105	446219.000000	1158060.000000
MH_824_106	446223.600000	1158573.000000
MH_824_107	446226.700000	1159114.000000
MH_824_108	446229.700000	1158841.000000
MH_824_109	446229.800000	1155906.000000
MH_824_11	442984.700000	1157674.000000
MH_824_110	446244.100000	1154411.000000
MH_824_111	446245.400000	1155102.000000
MH_824_112	446259.900000	1154783.000000
MH_824_113	446357.600000	1156224.000000
MH_824_114	446361.700000	1155537.000000
MH_824_115	446363.000000	1155451.000000
MH_824_116	446367.500000	1155906.000000
MH_824_117	446405.400000	1156263.000000
MH_824_118	446406.900000	1156610.000000
MH_824_119	446439.200000	1158495.000000
MH_824_12	443018.000000	1157556.000000
MH_824_120	446445.300000	1158286.000000
MH_824_121	446452.600000	1158835.000000
MH_824_122	446471.200000	1159226.000000
MH_824_123	446497.600000	1159346.000000
MH_824_124	446515.700000	1158361.000000
MH_824_125	446539.400000	1159034.000000
MH_824_126	446563.200000	1158821.000000
MH_824_127	446608.200000	1154406.000000
MH_824_128	446637.700000	1155902.000000
MH_824_129	446639.100000	1154482.000000
MH_824_13	443051.200000	1156766.000000
MH_824_130	446639.500000	1158315.000000
MH_824_131	446640.600000	1154778.000000
MH_824_132	446694.400000	1155078.000000
MH_824_133	446695.700000	1155448.000000
MH_824_134	446717.800000	1157069.000000
MH_824_135	446719.700000	1157287.000000
MH_824_136	446740.200000	1157682.000000
MH_824_137	446747.600000	1156948.000000
MH_824_138	446867.100000	1158307.000000
MH_824_139	446885.000000	1157727.000000
MH_824_14	443175.100000	1157599.000000
MH_824_140	446888.000000	1155890.000000
MH_824_141	446906.000000	1155441.000000
MH_824_142	446909.000000	1155708.000000
MH_824_143	446920.200000	1154543.000000
MH_824_144	446939.700000	1154268.000000
MH_824_145	446945.400000	1158346.000000
MH_824_146	446950.400000	1156927.000000
MH_824_147	446954.600000	1158653.000000
MH_824_148	446972.900000	1159324.000000
MH_824_149	446978.600000	1158959.000000
MH_824_15	443309.600000	1157185.000000
MH_824_150	446988.100000	1154597.000000
MH_824_151	446995.700000	1158493.000000
MH_824_152	446996.800000	1159199.000000
MH_824_153	447011.800000	1156072.000000
MH_824_154	447018.100000	1158265.000000
MH_824_155	447027.400000	1157678.000000
MH_824_156	447028.000000	1156982.000000
MH_824_157	447037.000000	1157241.000000
MH_824_158	447038.700000	1157493.000000
MH_824_159	447043.700000	1155080.000000
MH_824_16	443415.300000	1157306.000000
MH_824_160	447201.200000	1155728.000000
MH_824_161	447224.400000	1157755.000000
MH_824_162	447225.200000	1157490.000000
MH_824_163	447226.100000	1158046.000000
MH_824_164	447231.400000	1158098.000000
MH_824_17	443421.400000	1157555.000000
MH_824_18	443436.500000	1157012.000000
MH_824_19	443445.500000	1156763.000000
MH_824_2	442147.700000	1157082.000000
MH_824_20	443454.600000	1157481.000000
MH_824_21	443578.200000	1155865.000000
MH_824_22	443580.900000	1155650.000000
MH_824_23	443612.600000	1155606.000000
MH_824_24	443628.600000	1155922.000000
MH_824_25	443649.200000	1156764.000000
MH_824_26	443650.800000	1154698.000000
MH_824_27	443729.200000	1154713.000000
MH_824_28	443736.900000	1154907.000000
MH_824_29	443738.800000	1155212.000000
MH_824_3	442193.000000	1157023.000000
MH_824_30	443768.200000	1155256.000000
MH_824_31	443793.500000	1157725.000000
MH_824_32	443800.400000	1157595.000000
MH_824_33	443900.100000	1156952.000000
MH_824_34	443904.800000	1156763.000000
MH_824_35	443906.600000	1155262.000000
MH_824_36	443938.500000	1155920.000000
MH_824_37	443970.000000	1155261.000000
MH_824_38	443970.900000	1155322.000000
MH_824_39	443971.900000	1155892.000000
MH_824_4	442548.000000	1157593.000000
MH_824_40	443972.400000	1155606.000000
MH_824_41	444037.400000	1156479.000000
MH_824_42	444040.500000	1156225.000000
MH_824_43	444049.000000	1157282.000000
MH_824_44	444069.800000	1154960.000000
MH_824_45	444071.500000	1155260.000000
MH_824_46	444073.600000	1154644.000000
MH_824_47	444160.000000	1156972.000000
MH_824_48	444170.800000	1157598.000000
MH_824_49	444171.500000	1156479.000000
MH_824_5	442579.800000	1157426.000000
MH_824_50	444174.600000	1156223.000000
MH_824_51	444180.800000	1156006.000000
MH_824_52	444192.900000	1156587.000000
MH_824_53	444208.600000	1154609.000000
MH_824_54	444308.200000	1154525.000000
MH_824_55	444350.800000	1155258.000000
MH_824_56	444383.200000	1154716.000000
MH_824_57	444383.600000	1154599.000000
MH_824_58	444385.100000	1154866.000000
MH_824_59	444390.000000	1155208.000000
MH_824_6	442600.900000	1156991.000000
MH_824_60	444409.600000	1156973.000000
MH_824_61	444412.600000	1157281.000000
MH_824_62	444413.200000	1156396.000000
MH_824_63	444414.700000	1155708.000000
MH_824_64	444416.100000	1157598.000000
MH_824_65	444423.000000	1157974.000000
MH_824_66	444424.100000	1155566.000000
MH_824_67	444428.800000	1156008.000000
MH_824_68	444429.400000	1156638.000000
MH_824_69	444710.000000	1155263.000000
MH_824_7	442608.500000	1157171.000000
MH_824_70	445031.800000	1155268.000000
MH_824_71	445037.400000	1154954.000000
MH_824_72	445228.300000	1158813.000000
MH_824_73	445241.200000	1158194.000000
MH_824_74	445285.700000	1159133.000000
MH_824_75	445302.900000	1158988.000000
MH_824_76	445334.500000	1158365.000000
MH_824_77	445335.900000	1158626.000000
MH_824_78	445356.000000	1158466.000000
MH_824_79	445372.600000	1154819.000000
MH_824_8	442776.200000	1156994.000000
MH_824_80	445431.500000	1155267.000000
MH_824_81	445657.100000	1154282.000000
MH_824_82	445689.300000	1154562.000000
MH_824_83	445690.500000	1154815.000000
MH_824_84	445690.500000	1154738.000000
MH_824_85	445700.200000	1155096.000000
MH_824_86	445704.200000	1155231.000000
MH_824_87	445759.700000	1154377.000000
MH_824_88	445820.100000	1154423.000000
MH_824_89	445847.800000	1154224.000000
MH_824_9	442863.800000	1157485.000000
MH_824_90	445893.500000	1155149.000000
MH_824_91	445913.800000	1159152.000000
MH_824_92	445964.600000	1154748.000000
MH_824_93	445993.200000	1158970.000000
MH_824_94	446001.800000	1158869.000000
MH_824_95	446003.900000	1158562.000000
MH_824_96	446008.200000	1158192.000000
MH_824_97	446035.700000	1155568.000000
MH_824_98	446040.600000	1155907.000000
MH_824_99	446040.600000	1156350.000000
MH_825_10	446914.100000	1152929.000000
MH_825_11	446916.600000	1152533.000000
MH_825_12	446919.100000	1153224.000000
MH_825_13	446922.900000	1153722.000000
MH_825_14	446925.400000	1153988.000000
MH_825_2	445065.900000	1154012.000000
MH_825_3	445077.800000	1153838.000000
MH_825_4	445083.000000	1153462.000000
MH_825_5	446008.800000	1153339.000000
MH_825_6	446033.200000	1153905.000000
MH_825_7	446033.200000	1153608.000000
MH_825_8	446902.800000	1152542.000000
MH_825_9	446911.600000	1152897.000000
MH_919_1	447227.900000	1157410.000000
MH_919_10	447536.900000	1154158.000000
MH_919_100	449313.700000	1157304.000000
MH_919_101	449341.000000	1155593.000000
MH_919_102	449431.000000	1157609.000000
MH_919_103	449432.600000	1156327.000000
MH_919_104	449437.500000	1154238.000000
MH_919_105	449470.000000	1154069.000000
MH_919_106	449516.500000	1157160.000000
MH_919_107	449519.600000	1157468.000000
MH_919_108	449521.300000	1154307.000000
MH_919_109	449549.600000	1157993.000000
MH_919_11	447543.300000	1156747.000000
MH_919_110	449555.200000	1155478.000000
MH_919_111	449583.600000	1158162.000000
MH_919_112	449615.700000	1156695.000000
MH_919_113	449621.000000	1154198.000000
MH_919_114	449646.200000	1156995.000000
MH_919_115	449651.300000	1154568.000000
MH_919_116	449654.500000	1154842.000000
MH_919_117	449655.600000	1155260.000000
MH_919_118	449681.000000	1155596.000000
MH_919_119	449773.300000	1157852.000000
MH_919_12	447546.000000	1157005.000000
MH_919_120	449790.200000	1154062.000000
MH_919_121	449795.000000	1154458.000000
MH_919_122	449797.400000	1154839.000000
MH_919_123	449808.900000	1156319.000000
MH_919_124	449811.900000	1155192.000000
MH_919_125	449816.200000	1155588.000000
MH_919_126	449819.900000	1155944.000000
MH_919_127	449824.300000	1157743.000000
MH_919_128	449868.300000	1154833.000000
MH_919_129	449876.200000	1156320.000000
MH_919_13	447554.200000	1157408.000000
MH_919_130	449878.300000	1154368.000000
MH_919_131	449881.000000	1155943.000000
MH_919_132	449885.200000	1154061.000000
MH_919_133	449887.500000	1155275.000000
MH_919_134	449888.400000	1156690.000000
MH_919_135	449893.000000	1156993.000000
MH_919_136	449896.200000	1158195.000000
MH_919_137	449898.600000	1157560.000000
MH_919_138	449908.300000	1157386.000000
MH_919_139	449990.600000	1155796.000000
MH_919_14	447558.100000	1157856.000000
MH_919_140	450021.500000	1157599.000000
MH_919_141	450036.400000	1157803.000000
MH_919_142	450070.000000	1156678.000000
MH_919_143	450080.300000	1154058.000000
MH_919_144	450083.900000	1155365.000000
MH_919_145	450102.400000	1157001.000000
MH_919_146	450128.700000	1157388.000000
MH_919_147	450141.600000	1155925.000000
MH_919_148	450208.500000	1158237.000000
MH_919_149	450236.700000	1157871.000000
MH_919_15	447576.300000	1156386.000000
MH_919_150	450292.800000	1155350.000000
MH_919_151	450293.600000	1155794.000000
MH_919_152	450295.000000	1155832.000000
MH_919_153	450299.100000	1157317.000000
MH_919_154	450301.300000	1156311.000000
MH_919_155	450363.100000	1154054.000000
MH_919_156	450364.400000	1158007.000000
MH_919_157	450412.100000	1156999.000000
MH_919_158	450414.600000	1158280.000000
MH_919_159	450418.900000	1156671.000000
MH_919_16	447589.600000	1156282.000000
MH_919_160	450447.200000	1157347.000000
MH_919_161	450453.400000	1158156.000000
MH_919_162	450481.500000	1154054.000000
MH_919_163	450494.600000	1155911.000000
MH_919_164	450504.200000	1154701.000000
MH_919_165	450506.400000	1154331.000000
MH_919_166	450506.800000	1155100.000000
MH_919_167	450542.600000	1155780.000000
MH_919_168	450553.000000	1155515.000000
MH_919_169	450573.400000	1157471.000000
MH_919_17	447659.000000	1155531.000000
MH_919_170	450581.200000	1155931.000000
MH_919_171	450585.700000	1157064.000000
MH_919_172	450612.500000	1155149.000000
MH_919_173	450647.400000	1154302.000000
MH_919_174	450647.600000	1154134.000000
MH_919_175	450649.200000	1154621.000000
MH_919_176	450694.600000	1154944.000000
MH_919_177	450696.100000	1156307.000000
MH_919_178	450700.700000	1154820.000000
MH_919_179	450700.800000	1155519.000000
MH_919_18	447707.900000	1155558.000000
MH_919_180	450708.800000	1155771.000000
MH_919_181	450714.600000	1155503.000000
MH_919_182	450718.100000	1155343.000000
MH_919_183	450755.000000	1155504.000000
MH_919_184	450813.700000	1156671.000000
MH_919_185	450818.800000	1156810.000000
MH_919_186	450833.700000	1154934.000000
MH_919_187	450838.000000	1157572.000000
MH_919_188	450851.200000	1157261.000000
MH_919_189	450865.700000	1155926.000000
MH_919_19	447714.600000	1154201.000000
MH_919_190	450868.200000	1157263.000000
MH_919_191	450869.900000	1157009.000000
MH_919_192	450874.400000	1157575.000000
MH_919_193	450889.400000	1157832.000000
MH_919_194	450893.000000	1158172.000000
MH_919_195	450907.800000	1155770.000000
MH_919_196	450954.800000	1154348.000000
MH_919_197	451033.200000	1155340.000000
MH_919_198	451033.200000	1155652.000000
MH_919_199	451067.900000	1156303.000000
MH_919_2	447234.400000	1156832.000000
MH_919_20	447718.900000	1155870.000000
MH_919_200	451168.200000	1154617.000000
MH_919_201	451175.000000	1154342.000000
MH_919_202	451179.300000	1154840.000000
MH_919_203	451183.000000	1155160.000000
MH_919_204	451184.200000	1155357.000000
MH_919_205	451186.400000	1156984.000000
MH_919_206	451188.100000	1157222.000000
MH_919_207	451188.600000	1155910.000000
MH_919_208	451193.200000	1156659.000000
MH_919_209	451357.800000	1155906.000000
MH_919_21	447724.300000	1154734.000000
MH_919_210	451428.100000	1155902.000000
MH_919_211	451433.400000	1155507.000000
MH_919_212	451513.200000	1154833.000000
MH_919_213	451564.900000	1155892.000000
MH_919_214	451569.000000	1155151.000000
MH_919_215	451573.400000	1154334.000000
MH_919_216	451665.600000	1155454.000000
MH_919_217	451816.200000	1154827.000000
MH_919_218	451953.000000	1155325.000000
MH_919_219	451959.000000	1155727.000000
MH_919_22	447731.200000	1154402.000000
MH_919_220	451959.400000	1155883.000000
MH_919_221	451962.500000	1154010.000000
MH_919_222	451966.800000	1155144.000000
MH_919_223	451967.000000	1154187.000000
MH_919_224	451972.800000	1154497.000000
MH_919_225	451976.800000	1154697.000000
MH_919_226	452055.800000	1155143.000000
MH_919_227	452241.200000	1155878.000000
MH_919_228	452309.200000	1154005.000000
MH_919_229	452310.200000	1154040.000000
MH_919_23	447741.000000	1155239.000000
MH_919_230	452322.300000	1154094.000000
MH_919_231	452335.900000	1155486.000000
MH_919_232	452361.400000	1155606.000000
MH_919_233	452368.300000	1154317.000000
MH_919_234	452375.600000	1154689.000000
MH_919_24	447767.400000	1154865.000000
MH_919_25	447772.300000	1156728.000000
MH_919_26	447773.300000	1156413.000000
MH_919_27	447848.000000	1154083.000000
MH_919_28	447868.100000	1155468.000000
MH_919_29	447895.700000	1157400.000000
MH_919_3	447236.800000	1157032.000000
MH_919_30	447899.400000	1156724.000000
MH_919_31	447899.800000	1157085.000000
MH_919_32	447903.500000	1157882.000000
MH_919_33	447908.000000	1154887.000000
MH_919_34	447909.000000	1155251.000000
MH_919_35	448012.900000	1154372.000000
MH_919_36	448036.000000	1154084.000000
MH_919_37	448048.400000	1154563.000000
MH_919_38	448090.400000	1155223.000000
MH_919_39	448096.800000	1155401.000000
MH_919_4	447253.900000	1155573.000000
MH_919_40	448126.000000	1156723.000000
MH_919_41	448146.200000	1158542.000000
MH_919_42	448148.800000	1154868.000000
MH_919_43	448241.600000	1157401.000000
MH_919_44	448242.200000	1157433.000000
MH_919_45	448247.600000	1156186.000000
MH_919_46	448250.100000	1156438.000000
MH_919_47	448253.100000	1156721.000000
MH_919_48	448337.000000	1154070.000000
MH_919_49	448339.400000	1154578.000000
MH_919_5	447306.100000	1154241.000000
MH_919_50	448340.800000	1154871.000000
MH_919_51	448348.800000	1155227.000000
MH_919_52	448350.100000	1154330.000000
MH_919_53	448378.400000	1155031.000000
MH_919_54	448395.600000	1157104.000000
MH_919_55	448405.200000	1157429.000000
MH_919_56	448405.800000	1155382.000000
MH_919_57	448409.600000	1157806.000000
MH_919_58	448419.700000	1156720.000000
MH_919_59	448424.300000	1158490.000000
MH_919_6	447336.800000	1154497.000000
MH_919_60	448475.900000	1158196.000000
MH_919_61	448481.400000	1158288.000000
MH_919_63	448529.800000	1155605.000000
MH_919_64	448649.800000	1154068.000000
MH_919_65	448658.600000	1154232.000000
MH_919_66	448663.600000	1154917.000000
MH_919_67	448664.400000	1154580.000000
MH_919_68	448669.800000	1157015.000000
MH_919_69	448670.400000	1155279.000000
MH_919_7	447341.400000	1155246.000000
MH_919_70	448673.000000	1155599.000000
MH_919_71	448701.300000	1158161.000000
MH_919_72	448716.800000	1156710.000000
MH_919_73	448718.100000	1156345.000000
MH_919_74	448777.000000	1155501.000000
MH_919_75	448801.400000	1154081.000000
MH_919_76	448821.800000	1156985.000000
MH_919_77	448823.000000	1157025.000000
MH_919_78	448825.800000	1157364.000000
MH_919_79	448831.300000	1157744.000000
MH_919_8	447349.900000	1154875.000000
MH_919_80	448921.700000	1156707.000000
MH_919_81	448945.800000	1158117.000000
MH_919_82	448949.400000	1157359.000000
MH_919_83	449017.200000	1154227.000000
MH_919_84	449022.600000	1154583.000000
MH_919_85	449023.800000	1154914.000000
MH_919_86	449030.600000	1155240.000000
MH_919_87	449035.800000	1155607.000000
MH_919_88	449069.700000	1154076.000000
MH_919_89	449138.500000	1156331.000000
MH_919_9	447535.000000	1154098.000000
MH_919_90	449157.200000	1155244.000000
MH_919_91	449223.500000	1154224.000000
MH_919_92	449224.800000	1156981.000000
MH_919_93	449227.900000	1157671.000000
MH_919_94	449256.700000	1155599.000000
MH_919_95	449261.200000	1156704.000000
MH_919_96	449263.900000	1158055.000000
MH_919_97	449293.500000	1154579.000000
MH_919_98	449297.000000	1154979.000000
MH_919_99	449297.900000	1155212.000000
MH_920_1	452483.500000	1154090.000000
MH_920_10	452995.500000	1154178.000000
MH_920_11	453000.800000	1154440.000000
MH_920_12	453004.800000	1154835.000000
MH_920_13	453014.100000	1155275.000000
MH_920_14	453018.100000	1155639.000000
MH_920_15	453260.200000	1154166.000000
MH_920_16	453264.200000	1154438.000000
MH_920_17	453270.800000	1154736.000000
MH_920_18	453277.500000	1155119.000000
MH_920_19	453281.500000	1155434.000000
MH_920_2	452641.800000	1154095.000000
MH_920_20	453286.800000	1155873.000000
MH_920_21	453431.800000	1155873.000000
MH_920_22	453538.200000	1155470.000000
MH_920_23	453538.500000	1155053.000000
MH_920_24	453554.100000	1155865.000000
MH_920_25	453575.700000	1154683.000000
MH_920_26	453821.200000	1155147.000000
MH_920_27	453821.200000	1155458.000000
MH_920_28	453825.000000	1154668.000000
MH_920_29	453826.900000	1155865.000000
MH_920_3	452653.700000	1154425.000000
MH_920_30	453986.000000	1154965.000000
MH_920_31	453988.100000	1156011.000000
MH_920_32	454119.000000	1155551.000000
MH_920_33	454125.500000	1155845.000000
MH_920_34	454130.200000	1155184.000000
MH_920_35	454265.000000	1155139.000000
MH_920_36	454324.900000	1155297.000000
MH_920_37	454333.400000	1156004.000000
MH_920_38	454452.200000	1155621.000000
MH_920_39	454485.200000	1155841.000000
MH_920_4	452661.700000	1154804.000000
MH_920_40	454493.700000	1155998.000000
MH_920_41	454659.900000	1154068.000000
MH_920_42	454744.200000	1154252.000000
MH_920_43	454744.200000	1154005.000000
MH_920_44	454845.800000	1154472.000000
MH_920_45	454991.000000	1154552.000000
MH_920_46	455024.600000	1155978.000000
MH_920_47	455056.800000	1156329.000000
MH_920_48	455158.600000	1154204.000000
MH_920_49	455174.800000	1154586.000000
MH_920_5	452669.700000	1155214.000000
MH_920_50	455225.600000	1155715.000000
MH_920_51	455295.200000	1155452.000000
MH_920_52	455298.500000	1156334.000000
MH_920_53	455317.400000	1154917.000000
MH_920_54	455331.000000	1155335.000000
MH_920_55	455447.400000	1154998.000000
MH_920_57	455850.500000	1153992.000000
MH_920_58	455932.100000	1154104.000000
MH_920_59	456069.600000	1154145.000000
MH_920_6	452675.000000	1155613.000000
MH_920_60	456213.000000	1154069.000000
MH_920_61	456309.800000	1153965.000000
MH_920_62	456398.400000	1154723.000000
MH_920_63	456607.600000	1154610.000000
MH_920_64	456843.800000	1154351.000000
MH_920_65	457016.800000	1154011.000000
MH_920_66	457194.300000	1153968.000000
MH_920_7	452753.500000	1155883.000000
MH_920_8	452874.500000	1155881.000000
MH_920_9	452991.500000	1154085.000000
MH_928_105	459518.700000	1152796.000000
MH_928_107	459565.700000	1151842.000000
MH_928_118	459760.400000	1152759.000000
MH_928_13	457971.500000	1152524.000000
MH_928_18	458019.200000	1153323.000000
MH_928_27	458092.000000	1152244.000000
MH_928_28	458119.400000	1152563.000000
MH_928_36	458281.800000	1152009.000000
MH_928_43	458387.000000	1152005.000000
MH_928_47	458435.900000	1152443.000000
MH_928_49	458444.000000	1152562.000000
MH_928_50	458505.900000	1153153.000000
MH_928_53	458598.600000	1152562.000000
MH_928_58	458687.300000	1152431.000000
MH_928_6	457888.400000	1152826.000000
MH_928_65	458791.700000	1152004.000000
MH_928_66	458797.100000	1152232.000000
MH_928_67	458812.000000	1153049.000000
MH_928_69	458872.800000	1152555.000000
MH_928_76	458981.700000	1152429.000000
MH_928_81	459084.200000	1151995.000000
MH_928_86	459091.300000	1151322.000000
MH_928_87	459097.400000	1152343.000000
MH_928_88	459098.400000	1151672.000000
MH_928_89	459101.400000	1152426.000000
MH_928_90	459105.400000	1152661.000000
MH_928_91	459109.100000	1151847.000000
MH_928_92	459128.300000	1152931.000000
MH_928_98	459407.600000	1151845.000000
MH_929_1	452565.600000	1153343.000000
MH_929_10	452852.500000	1152620.000000
MH_929_100	455037.200000	1150422.000000
MH_929_101	455046.000000	1150678.000000
MH_929_102	455051.900000	1151077.000000
MH_929_103	455058.800000	1151446.000000
MH_929_104	455066.200000	1151784.000000
MH_929_105	455070.200000	1152351.000000
MH_929_106	455071.400000	1152170.000000
MH_929_107	455072.500000	1152592.000000
MH_929_108	455076.000000	1152785.000000
MH_929_109	455083.900000	1153144.000000
MH_929_11	452852.500000	1151619.000000
MH_929_110	455087.300000	1153513.000000
MH_929_111	455110.800000	1153698.000000
MH_929_112	455151.500000	1153913.000000
MH_929_114	455279.800000	1153695.000000
MH_929_115	455291.200000	1151444.000000
MH_929_116	455302.200000	1151779.000000
MH_929_118	455331.000000	1153407.000000
MH_929_119	455352.700000	1152784.000000
MH_929_12	452853.800000	1152970.000000
MH_929_120	455356.100000	1152169.000000
MH_929_121	455442.600000	1153148.000000
MH_929_122	455541.700000	1152165.000000
MH_929_123	455542.800000	1152423.000000
MH_929_124	455565.700000	1151773.000000
MH_929_125	455576.700000	1151440.000000
MH_929_126	455577.000000	1152782.000000
MH_929_128	455656.700000	1152161.000000
MH_929_13	452859.000000	1153193.000000
MH_929_130	455784.500000	1153678.000000
MH_929_131	455803.400000	1153402.000000
MH_929_132	455894.400000	1150400.000000
MH_929_133	455895.000000	1153046.000000
MH_929_134	455899.800000	1150766.000000
MH_929_135	455905.300000	1151096.000000
MH_929_136	455910.800000	1151434.000000
MH_929_137	455943.700000	1151765.000000
MH_929_138	455955.200000	1152716.000000
MH_929_14	453010.200000	1151142.000000
MH_929_140	455970.400000	1152158.000000
MH_929_142	456118.400000	1153677.000000
MH_929_143	456121.000000	1153720.000000
MH_929_144	456121.000000	1150766.000000
MH_929_145	456130.200000	1151096.000000
MH_929_146	456145.400000	1153317.000000
MH_929_147	456150.100000	1153818.000000
MH_929_148	456212.100000	1153089.000000
MH_929_149	456296.400000	1152726.000000
MH_929_15	453019.400000	1151333.000000
MH_929_150	456306.700000	1153425.000000
MH_929_151	456311.100000	1151093.000000
MH_929_152	456316.600000	1150762.000000
MH_929_153	456356.500000	1152149.000000
MH_929_154	456358.600000	1151429.000000
MH_929_155	456362.300000	1151756.000000
MH_929_158	456496.300000	1153726.000000
MH_929_16	453025.900000	1151552.000000
MH_929_161	456512.200000	1152769.000000
MH_929_162	456528.000000	1151433.000000
MH_929_164	456535.700000	1151667.000000
MH_929_165	456538.900000	1153191.000000
MH_929_166	456540.800000	1151929.000000
MH_929_167	456542.700000	1152194.000000
MH_929_168	456552.800000	1152431.000000
MH_929_169	456563.800000	1151408.000000
MH_929_17	453078.100000	1150999.000000
MH_929_171	456672.000000	1152820.000000
MH_929_174	456742.300000	1152621.000000
MH_929_175	456795.800000	1153404.000000
MH_929_176	456817.800000	1151927.000000
MH_929_177	456817.800000	1151403.000000
MH_929_18	453145.000000	1150343.000000
MH_929_180	456837.700000	1152433.000000
MH_929_181	456891.700000	1152187.000000
MH_929_182	456895.600000	1151662.000000
MH_929_184	456926.800000	1152994.000000
MH_929_188	457024.700000	1152859.000000
MH_929_19	453251.500000	1151638.000000
MH_929_190	457072.400000	1152623.000000
MH_929_196	457091.200000	1152429.000000
MH_929_198	457112.000000	1153250.000000
MH_929_199	457128.000000	1153282.000000
MH_929_2	452625.600000	1151338.000000
MH_929_20	453254.900000	1153869.000000
MH_929_201	457154.800000	1151396.000000
MH_929_204	457246.900000	1153114.000000
MH_929_205	457255.600000	1151922.000000
MH_929_206	457260.700000	1151656.000000
MH_929_207	457265.700000	1152183.000000
MH_929_209	457308.600000	1153863.000000
MH_929_21	453301.800000	1152206.000000
MH_929_211	457332.200000	1151396.000000
MH_929_212	457358.600000	1152893.000000
MH_929_213	457407.600000	1152685.000000
MH_929_214	457410.900000	1153713.000000
MH_929_217	457440.200000	1152429.000000
MH_929_218	457440.700000	1151377.000000
MH_929_22	453304.500000	1152431.000000
MH_929_221	457497.400000	1153586.000000
MH_929_223	457531.800000	1152184.000000
MH_929_224	457573.400000	1151456.000000
MH_929_226	457618.100000	1151656.000000
MH_929_227	457619.400000	1151920.000000
MH_929_23	453310.200000	1151921.000000
MH_929_230	457715.600000	1153324.000000
MH_929_239	457754.000000	1153456.000000
MH_929_24	453387.400000	1152495.000000
MH_929_240	457798.600000	1153155.000000
MH_929_25	453426.200000	1150992.000000
MH_929_26	453451.000000	1151325.000000
MH_929_27	453468.700000	1150659.000000
MH_929_28	453623.100000	1151914.000000
MH_929_29	453624.400000	1151621.000000
MH_929_3	452633.400000	1151155.000000
MH_929_30	453639.600000	1152203.000000
MH_929_32	453755.000000	1150323.000000
MH_929_33	453760.000000	1150652.000000
MH_929_34	453762.600000	1151506.000000
MH_929_35	453763.900000	1150986.000000
MH_929_36	453765.200000	1151320.000000
MH_929_37	453767.800000	1151840.000000
MH_929_38	453771.700000	1152204.000000
MH_929_39	453777.100000	1152489.000000
MH_929_4	452716.900000	1150343.000000
MH_929_40	453841.300000	1153229.000000
MH_929_44	454024.100000	1152851.000000
MH_929_46	454028.100000	1153420.000000
MH_929_47	454049.100000	1150009.000000
MH_929_48	454056.400000	1150432.000000
MH_929_49	454066.700000	1150496.000000
MH_929_5	452782.100000	1151775.000000
MH_929_50	454071.100000	1150976.000000
MH_929_51	454072.600000	1151322.000000
MH_929_52	454081.300000	1151682.000000
MH_929_53	454088.600000	1152010.000000
MH_929_54	454096.600000	1152455.000000
MH_929_56	454208.700000	1150006.000000
MH_929_57	454216.900000	1153616.000000
MH_929_58	454220.800000	1152845.000000
MH_929_59	454248.200000	1151320.000000
MH_929_6	452784.700000	1152601.000000
MH_929_63	454374.500000	1153775.000000
MH_929_64	454378.000000	1152824.000000
MH_929_65	454379.800000	1153157.000000
MH_929_66	454381.800000	1153438.000000
MH_929_67	454415.100000	1151606.000000
MH_929_68	454422.400000	1151317.000000
MH_929_69	454423.900000	1150136.000000
MH_929_7	452813.400000	1152108.000000
MH_929_70	454425.700000	1151955.000000
MH_929_71	454426.800000	1152232.000000
MH_929_72	454426.800000	1150476.000000
MH_929_73	454434.100000	1150729.000000
MH_929_74	454434.100000	1151050.000000
MH_929_75	454436.000000	1152448.000000
MH_929_77	454575.200000	1152819.000000
MH_929_78	454627.400000	1151312.000000
MH_929_8	452813.400000	1153335.000000
MH_929_80	454725.400000	1149997.000000
MH_929_81	454725.600000	1152937.000000
MH_929_82	454726.900000	1150326.000000
MH_929_84	454731.300000	1150586.000000
MH_929_85	454731.600000	1153298.000000
MH_929_86	454740.100000	1153680.000000
MH_929_87	454741.600000	1151014.000000
MH_929_88	454744.500000	1151312.000000
MH_929_89	454749.600000	1151706.000000
MH_929_9	452846.000000	1152480.000000
MH_929_90	454754.700000	1151953.000000
MH_929_91	454759.400000	1152319.000000
MH_929_92	454767.400000	1152592.000000
MH_929_93	454893.800000	1151309.000000
MH_929_99	455029.900000	1150088.000000
MH_930_1	447148.700000	1152454.000000
MH_930_100	449892.300000	1152694.000000
MH_930_101	449906.300000	1153037.000000
MH_930_102	449956.000000	1153372.000000
MH_930_103	449968.400000	1153700.000000
MH_930_104	450007.500000	1151563.000000
MH_930_105	450013.000000	1151916.000000
MH_930_106	450071.000000	1151880.000000
MH_930_107	450158.100000	1152173.000000
MH_930_108	450163.000000	1152406.000000
MH_930_109	450171.600000	1152689.000000
MH_930_110	450223.600000	1153365.000000
MH_930_111	450241.600000	1151874.000000
MH_930_112	450294.100000	1151557.000000
MH_930_113	450301.800000	1151820.000000
MH_930_114	450387.600000	1153034.000000
MH_930_115	450547.300000	1151563.000000
MH_930_116	450607.200000	1153026.000000
MH_930_117	450617.600000	1151628.000000
MH_930_118	450629.400000	1152358.000000
MH_930_119	450632.700000	1152610.000000
MH_930_120	450634.400000	1152677.000000
MH_930_121	450765.000000	1151913.000000
MH_930_122	450770.200000	1153685.000000
MH_930_123	450781.700000	1153353.000000
MH_930_124	450789.200000	1154021.000000
MH_930_125	450848.800000	1152611.000000
MH_930_126	450857.300000	1153020.000000
MH_930_127	450858.800000	1152673.000000
MH_930_128	450904.000000	1151913.000000
MH_930_129	450929.200000	1153684.000000
MH_930_130	450934.200000	1152434.000000
MH_930_131	451141.800000	1152685.000000
MH_930_132	451141.900000	1153011.000000
MH_930_133	451154.800000	1153346.000000
MH_930_134	451161.500000	1153682.000000
MH_930_135	451169.800000	1154012.000000
MH_930_136	451292.500000	1151612.000000
MH_930_137	451299.200000	1152027.000000
MH_930_138	451305.900000	1152499.000000
MH_930_139	451344.400000	1151516.000000
MH_930_140	451359.600000	1153573.000000
MH_930_141	451401.300000	1154012.000000
MH_930_142	451505.200000	1151515.000000
MH_930_143	451629.100000	1151513.000000
MH_930_144	451632.400000	1151779.000000
MH_930_145	451634.100000	1152503.000000
MH_930_146	451642.500000	1152183.000000
MH_930_147	451684.400000	1152638.000000
MH_930_148	451730.200000	1153413.000000
MH_930_149	451734.600000	1151510.000000
MH_930_150	451752.700000	1154006.000000
MH_930_151	451845.100000	1151508.000000
MH_930_152	451892.400000	1153354.000000
MH_930_153	451942.200000	1152471.000000
MH_930_154	451942.700000	1150821.000000
MH_930_155	451947.200000	1152640.000000
MH_930_156	451948.100000	1151173.000000
MH_930_157	451970.700000	1151429.000000
MH_930_158	451972.400000	1151504.000000
MH_930_159	451974.000000	1152171.000000
MH_930_160	451979.100000	1151796.000000
MH_930_161	452101.600000	1153288.000000
MH_930_162	452126.200000	1150813.000000
MH_930_163	452241.500000	1150817.000000
MH_930_164	452248.200000	1151173.000000
MH_930_165	452256.200000	1151006.000000
MH_930_166	452260.400000	1152633.000000
MH_930_167	452426.100000	1151016.000000
MH_930_168	452433.900000	1151292.000000
MH_930_169	452435.600000	1150350.000000
MH_930_170	452441.700000	1151605.000000
MH_930_171	452443.000000	1150664.000000
MH_930_172	452444.400000	1150971.000000
MH_930_173	452448.200000	1152068.000000
MH_930_174	452453.500000	1152400.000000
MH_930_175	452453.500000	1152625.000000
MH_930_176	452453.500000	1152888.000000
MH_930_177	452457.400000	1153097.000000
MH_930_178	452458.700000	1153302.000000
MH_930_179	452474.300000	1153986.000000
MH_930_2	447177.600000	1152796.000000
MH_930_3	447182.600000	1153199.000000
MH_930_4	447188.900000	1153514.000000
MH_930_46	448643.500000	1153973.000000
MH_930_47	448652.200000	1154030.000000
MH_930_48	448657.400000	1154017.000000
MH_930_5	447190.100000	1153993.000000
MH_930_6	447190.100000	1153836.000000
MH_930_96	449801.600000	1153221.000000
MH_930_97	449803.200000	1153184.000000
MH_930_98	449813.100000	1153598.000000
MH_930_99	449816.400000	1154010.000000
OFALL-12	452475.640000	1151359.180000
WW-1002	446067.170000	1153325.590000
WW-1003	445118.820000	1153868.800000
WW-147	443646.900000	1156797.560000
WW-147_BC	443619.300000	1156796.490000
WW-220	448675.520000	1153962.760000
WW-221	448518.050000	1158192.930000
WW-222	447389.530000	1160087.330000
WW-223	447011.940000	1159367.520000
WW-224	450892.720000	1157254.530000
WW-225	452469.090000	1154087.960000
WW-226	452784.670000	1152625.170000
WW-227	453320.660000	1152489.430000
WW-228	457092.190000	1152198.620000
WW-229	455211.300000	1155658.290000
WW-230	455554.766513	1154933.841374
WW-231	456402.600000	1154740.300000
WW-232	457098.840000	1153289.780000
WW-232_OUTFALL	457068.540000	1153293.080000
WW-242	445472.600000	1158992.340000
WW-243	447185.100000	1156039.760000
WW-246	445835.030000	1154150.470000
WW-247	446906.580000	1152491.470000
WW-250	444378.870000	1155699.960000
WW-251	443933.840000	1155313.220000
WW-258	451194.250000	1153318.930000


[POLYGONS]

[VERTICES]

PMP1-1003	445127.742759	1153871.990493
PMP1-1003	445128.804327	1153885.790493
PMP1-147	443641.371045	1156800.801312
PMP1-147	443641.070181	1156814.640608
PMP1-222	447395.912873	1160090.065507
PMP1-222	447396.642345	1160105.019683
PMP1-222	447389.712361	1160107.208099
PMP1-223	447016.698345	1159371.355490
PMP1-223	447016.432809	1159383.835554
PMP1-225	452463.292590	1154090.492957
PMP1-225	452463.869358	1154105.258653
PMP1-225	452468.945070	1154107.796509
PMP1-226	452789.430382	1152626.173724
PMP1-226	452789.430382	1152643.685916
PMP1-230	455550.100273	1154941.437598
PMP1-230	455544.457393	1154938.073566
PMP1-232	457094.582514	1153293.437020
PMP1-232	457093.867698	1153306.661084
PMP1-242	445468.845991	1158995.573538
PMP1-242	445469.110951	1159010.015458
PMP1-251	443940.094950	1155317.849310
PMP1-251	443939.989478	1155330.451038

[SYMBOLS]
RAINGAGE-3	440696.281827	1151417.669595

[MAP]
DIMENSIONS	439743.075918	1149491.483499	460713.605909	1160612.846520

