[TITLE]
Provenance: SWMMEnablement/1729-SWMM5-Models/WQ/ContinuousModelWQ.inp @ 3725238554579ec6cd85e732096156e66d78918d.
Adaptation: shortened and normalized the RAIN_GW.DAT reference to bundled rain_gw.dat.
;;Project Title/Notes
WindermereRef3a - BASE

[OPTIONS]
;;Option             Value
FLOW_UNITS           MGD
INFILTRATION         GREEN_AMPT
FLOW_ROUTING         DYNWAVE
LINK_OFFSETS         DEPTH
MIN_SLOPE            0
ALLOW_PONDING        NO
SKIP_STEADY_STATE    NO

START_DATE           01/01/2000
START_TIME           00:00:00
REPORT_START_DATE    01/01/2000
REPORT_START_TIME    00:00:00
END_DATE             08/08/2000
END_TIME             00:00:00
SWEEP_START          01/01
SWEEP_END            12/31
DRY_DAYS             0
REPORT_STEP          00:15:00
WET_STEP             00:15:00
DRY_STEP             00:15:00
ROUTING_STEP         0:00:05

INERTIAL_DAMPING     NONE
NORMAL_FLOW_LIMITED  BOTH
FORCE_MAIN_EQUATION  H-W
VARIABLE_STEP        0.75
LENGTHENING_STEP     30
MIN_SURFAREA         0
MAX_TRIALS           0
HEAD_TOLERANCE       0
SYS_FLOW_TOL         5
LAT_FLOW_TOL         5
MINIMUM_STEP         0.5
THREADS              1

[EVAPORATION]
;;Data Source    Parameters
;;-------------- ----------------
CONSTANT         0.0
RECOVERY         GA
DRY_ONLY         NO

[RAINGAGES]
;;Name           Format    Interval SCF      Source    
;;-------------- --------- ------ ------ ----------
RG02             VOLUME    00:15:00 1        FILE       "rainfall-data.dat" G0001       IN

[SUBCATCHMENTS]
;;Name           Rain Gage        Outlet           Area     %Imperv  Width    %Slope   CurbLen  SnowPack        
;;-------------- ---------------- ---------------- -------- -------- -------- -------- -------- ----------------
S007-311         RG02             007-311          9.523    0        363      1.387    0                        
S007-316         RG02             007-316          8.04     26.177   311.8    6.045    0                        
S007-322         RG02             007-322          8.259    24.098   313      1.317    0                        
S007-325         RG02             007-325          16.774   17.088   458.4    2.065    0                        
S007-334         RG02             007-334          8.498    32.075   324.1    1.585    0                        
S007-341         RG02             007-341          8.498    31.833   322.7    2.819    0                        
S007-347         RG02             007-347          10.133   29.956   341.9    3.263    0                        

[SUBAREAS]
;;Subcatchment   N-Imperv   N-Perv     S-Imperv   S-Perv     PctZero    RouteTo    PctRouted 
;;-------------- ---------- ---------- ---------- ---------- ---------- ---------- ----------
S007-311         0.01       0.1        0.05       0.05       25         OUTLET    
S007-316         0.01       0.1        0.05       0.05       25         OUTLET    
S007-322         0.01       0.1        0.05       0.05       25         OUTLET    
S007-325         0.01       0.1        0.05       0.05       25         OUTLET    
S007-334         0.01       0.1        0.05       0.05       25         OUTLET    
S007-341         0.01       0.1        0.05       0.05       25         OUTLET    
S007-347         0.01       0.1        0.05       0.05       25         OUTLET    

[INFILTRATION]
;;Subcatchment   Suction    Ksat       IMD       
;;-------------- ---------- ---------- ----------
S007-311         11.42      0.02       .10       
S007-316         11.42      .02        .001      
S007-322         11.42      .02        .001      
S007-325         11.42      .02        .001      
S007-334         11.42      .02        .001      
S007-341         11.42      .02        .001      
S007-347         11.42      .02        .001      

[AQUIFERS]
;;Name           Por    WP     FC     Ksat   Kslope Tslope ETu    ETs    Seep   Ebot   Egw    Umc    ETupat 
;;-------------- ------ ------ ------ ------ ------ ------ ------ ------ ------ ------ ------ ------ ------
Silty_Clay       0.479  0.251  0.371  0.02   .01    15     0.35   14     0      0      277    0.478        

[GROUNDWATER]
;;Subcatchment   Aquifer          Node             Esurf  A1     B1     A2     B2     A3     Dsw    Egwt   Ebot   Wgr    Umc   
;;-------------- ---------------- ---------------- ------ ------ ------ ------ ------ ------ ------ ------ ------ ------ ------
S007-311         Silty_Clay       007-311          285    .01    1      .01    1      0      0      *     
S007-316         Silty_Clay       007-316          302    .01    1      .01    1      0      0      *     
S007-322         Silty_Clay       007-322          329    .01    1      .01    1      0      0      *     
S007-325         Silty_Clay       007-325          341    .01    1      .01    1      0      0      *     
S007-334         Silty_Clay       007-334          352    .01    1      .01    1      0      0      *     
S007-341         Silty_Clay       007-341          348    .01    1      .01    1      0      0      *     
S007-347         Silty_Clay       007-347          333    .01    1      .01    1      0      0      *     

[JUNCTIONS]
;;Name           Elevation  MaxDepth   InitDepth  SurDepth   Aponded   
;;-------------- ---------- ---------- ---------- ---------- ----------
007-308          263.6      12.4       0          0          0         
007-309          265.401    18.6       0          0          0         
007-310          272.6      16.4       0          0          0         
007-311          276.7      8.3        0          0          0         
007-312          279.7      11.3       0          0          0         
007-313          282.9      17.1       0          0          0         
007-314          285.1      11.9       0          0          0         
007-315          288.52     17.48      0          0          0         
007-316          292.07     9.93       0          0          0         
007-317          296.6      2.4        0          0          0         
007-318          301.27     1.73       0          0          0         
007-319          315.7      4.3        0          0          0         
007-320          317.4      7.6        0          0          0         
007-321          319.3      4.7        0          0          0         
007-322          320.8      8.2        0          0          0         
007-323          325.74     8.26       0          0          0         
007-324          328.26     9.74       0          0          0         
007-325          331.21     9.79       0          0          0         
007-326          333.4      9.6        0          0          0         
007-327          335.5      10.5       0          0          0         
007-328          337.7      10.3       0          0          0         
007-329          350.3      11.7       0          0          0         
007-330          356.22     8.78       0          0          0         
007-331          346.9      8.1        0          0          0         
007-332          349.3      9.7        0          0          0         
007-333          345.2      10.8       0          0          0         
007-334          339.1      12.9       0          0          0         
007-335          329.8      13.2       0          0          0         
007-336          327.5      13.5       0          0          0         
007-337          319.4      6.6        0          0          0         
007-338          354.504    8.5        0          0          0         
007-339          347.9      13.1       0          0          0         
007-340          339.9      14.1       0          0          0         
007-341          335.27     12.73      0          0          0         
007-342          329.2      12.8       0          0          0         
007-343          327.7      6.3        0          0          0         
007-344          324.9      6.1        0          0          0         
007-345          301        5          0          0          0         
007-346          317.5      6.5        0          0          0         
007-347          328.6      4.4        0          0          0         
007-348          339.2      5.8        0          0          0         
007-349          351.5      8.5        0          0          0         
007-351          342.4      11.6       0          0          0         
007-352          353.3      10.7       0          0          0         

[OUTFALLS]
;;Name           Elevation  Type       Stage Data       Gated    Route To        
;;-------------- ---------- ---------- ---------------- -------- ----------------
007-307          261        FREE                        NO                       

[CONDUITS]
;;Name           From Node        To Node          Length     Roughness  InOffset   OutOffset  InitFlow   MaxFlow   
;;-------------- ---------------- ---------------- ---------- ---------- ---------- ---------- ---------- ----------
007-308.1        007-308          007-307          242.1      0.013      0          0          0          0         
;US invert  assumption based on upstream pipes (see Notes)
007-309.1        007-309          007-308          167.7      0.013      0          0          0          0         
;Diameter verified with side sewer card, DS invert assumption based on downstream pipes (see Notes)
007-310.1        007-310          007-309          159.6      0.013      0          5.41       0          0         
007-311.1        007-311          007-310          366.8      0.013      0          0          0          0         
007-312.1        007-312          007-311          305.6      0.013      0          0          0          0         
007-313.1        007-313          007-312          246.8      0.013      0          0          0          0         
007-314.1        007-314          007-313          209.7      0.013      0          0          0          0         
;Invert assumptions based on adjacent pipes (see Notes)
007-315.1        007-315          007-314          227.8      0.013      0          0          0          0         
;Invert assumptions based on adjacent pipes (see Notes)
007-316.1        007-316          007-315          236.2      0.013      0          0          0          0         
;DS invert  assumption based on downstream pipes (see Notes)
007-317.1        007-317          007-316          301.3      0.013      0          0          0          0         
;US invert  assumption based on upstream and downstream pipes (see Notes)
007-318.1        007-318          007-317          311        0.013      0          0          0          0         
;DS invert based on dowsntream pipe (see Notes)
007-319.1        007-319          007-318          334.4      0.013      0          0          0          0         
007-320.1        007-320          007-319          319.6      0.013      0          0          0          0         
007-321.1        007-321          007-320          323.1      0.013      0          0          0          0         
;US invert  assumption based on upstream pipes (see Notes)
007-322.1        007-322          007-321          255.5      0.013      0          0          0          0         
;Invert assumptions based on adjacent pipes (see Notes)
007-323.1        007-323          007-322          273.7      0.013      0          0          0          0         
;Invert assumptions based on adjacent pipes (see Notes)
007-324.1        007-324          007-323          247.8      0.013      0          0          0          0         
;Invert assumptions based on adjacent pipes (see Notes)
007-325.1        007-325          007-324          291.3      0.013      0          0          0          0         
;DS invert  assumption based on downstream pipes (see Notes)
007-326.1        007-326          007-325          214.5      0.013      0          0          0          0         
007-327.1        007-327          007-326          206.5      0.013      0          0          0          0         
007-328.1        007-328          007-327          227.2      0.013      0          0          0          0         
007-329.1        007-329          007-328          358.2      0.013      0          0          0          0         
;US invert  assumption based on upstream pipes (see Notes)
007-330.1        007-330          007-329          168.4      0.013      0          0          0          0         
;(see Notes)
007-331.1        007-331          007-327          278.1      0.013      0          0          0          0         
;Pipe size assumption based on upstream and downstream pipes (see Notes)
007-332.1        007-332          007-333          308.2      0.013      0          0          0          0         
;Pipe size assumption based on upstream and downstream pipes (see Notes)
007-333.1        007-333          007-334          369.9      0.013      0          0          0          0         
;Pipe size assumption based on upstream and downstream pipes
007-334.1        007-334          007-335          360.6      0.013      0          0          0          0         
;Pipe size assumption based on upstream and downstream pipes (see Notes)
007-335.1        007-335          007-336          97         0.013      0          0          0          0         
;Pipe size assumption based on upstream and downstream pipes
007-336.1        007-336          007-337          290.1      0.013      0          0          0          0         
;Pipe size assumption based on upstream and downstream pipes
007-337.1        007-337          007-321          42.9       0.013      0          0          0          0         
;Pipe size assumption based on upstream and downstream pipes (see Notes)
007-338.1        007-338          007-339          350.8      0.013      0          0          0          0         
;Pipe size assumption based on upstream and downstream pipes (see Notes)
007-339.1        007-339          007-340          424.9      0.013      0          0          0          0         
;Pipe size assumption based on upstream and downstream pipes (see Notes)
007-340.1        007-340          007-341          182.1      0.013      0          0          0          0         
;US invert and pipe size assumption based on upstream and downstream pipes (see Notes)
007-341.1        007-341          007-342          239.9      0.013      0          0          0          0         
;Pipe size assumption based on upstream and downstream pipes (see Notes)
007-342.1        007-342          007-343          110.9      0.013      0          0          0          0         
;Pipe size assumption based on upstream and downstream pipes (see Notes)
007-343.1        007-343          007-344          57.6       0.013      0          0          0          0         
007-344.1        007-344          007-317          284.6      0.013      0          0          0          0         
;Pipe size assumption based on upstream and downstream pipes (see Notes)
007-345.1        007-345          007-316          34.2       0.013      0          0          0          0         
007-346.1        007-346          007-345          393.4      0.013      0          0          0          0         
007-347.1        007-347          007-346          481.2      0.013      0          0          0          0         
007-348.1        007-348          007-347          220.6      0.013      0          0          0          0         
;(see Notes)
007-349.1        007-349          007-348          317.7      0.013      0          0          0          0         
;Combined with GIS link 007-351 007-350 and 007-350 007-348 (see Notes)
007-351.1        007-351          007-348          339.5      0.013      0          0          0          0         
;Pipe size assumption based on upstream and downstream pipes (see Notes)
007-352.1        007-352          007-351          327.9      0.013      0          0          0          0         

[XSECTIONS]
;;Link           Shape        Geom1            Geom2      Geom3      Geom4      Barrels    Culvert   
;;-------------- ------------ ---------------- ---------- ---------- ---------- ---------- ----------
007-308.1        CIRCULAR     0.8333           242.1      0          0          1                    
007-309.1        CIRCULAR     0.8333           167.7      0          0          1                    
007-310.1        CIRCULAR     1                159.6      0          0          1                    
007-311.1        CIRCULAR     0.8333           366.8      0          0          1                    
007-312.1        CIRCULAR     0.8333           305.6      0          0          1                    
007-313.1        CIRCULAR     0.8333           246.8      0          0          1                    
007-314.1        CIRCULAR     0.8333           209.7      0          0          1                    
007-315.1        CIRCULAR     0.6667           227.8      0          0          1                    
007-316.1        CIRCULAR     0.6667           236.2      0          0          1                    
007-317.1        CIRCULAR     0.6667           301.3      0          0          1                    
007-318.1        CIRCULAR     0.6667           311        0          0          1                    
007-319.1        CIRCULAR     0.6667           334.4      0          0          1                    
007-320.1        CIRCULAR     0.6667           319.6      0          0          1                    
007-321.1        CIRCULAR     0.6667           323.1      0          0          1                    
007-322.1        CIRCULAR     0.6667           255.5      0          0          1                    
007-323.1        CIRCULAR     0.6667           273.7      0          0          1                    
007-324.1        CIRCULAR     0.6667           247.8      0          0          1                    
007-325.1        CIRCULAR     0.6667           291.3      0          0          1                    
007-326.1        CIRCULAR     0.6667           214.5      0          0          1                    
007-327.1        CIRCULAR     0.6667           206.5      0          0          1                    
007-328.1        CIRCULAR     0.6667           227.2      0          0          1                    
007-329.1        CIRCULAR     0.6667           358.2      0          0          1                    
007-330.1        CIRCULAR     0.6667           168.4      0          0          1                    
007-331.1        CIRCULAR     0.6667           278.1      0          0          1                    
007-332.1        CIRCULAR     0.6667           308.2      0          0          1                    
007-333.1        CIRCULAR     0.6667           369.9      0          0          1                    
007-334.1        CIRCULAR     0.6667           360.6      0          0          1                    
007-335.1        CIRCULAR     0.6667           97         0          0          1                    
007-336.1        CIRCULAR     0.6667           290.1      0          0          1                    
007-337.1        CIRCULAR     0.6667           42.9       0          0          1                    
007-338.1        CIRCULAR     0.6667           350.8      0          0          1                    
007-339.1        CIRCULAR     0.6667           424.9      0          0          1                    
007-340.1        CIRCULAR     0.6667           182.1      0          0          1                    
007-341.1        CIRCULAR     0.6667           239.9      0          0          1                    
007-342.1        CIRCULAR     0.6667           110.9      0          0          1                    
007-343.1        CIRCULAR     0.6667           57.6       0          0          1                    
007-344.1        CIRCULAR     0.6667           284.6      0          0          1                    
007-345.1        CIRCULAR     0.6667           34.2       0          0          1                    
007-346.1        CIRCULAR     0.6667           393.4      0          0          1                    
007-347.1        CIRCULAR     0.6667           481.2      0          0          1                    
007-348.1        CIRCULAR     0.6667           220.6      0          0          1                    
007-349.1        CIRCULAR     0.6667           317.7      0          0          1                    
007-351.1        CIRCULAR     0.6667           339.5      0          0          1                    
007-352.1        CIRCULAR     0.6667           327.9      0          0          1                    

[POLLUTANTS]
;;Name           Units  Crain      Cgw        Crdii      Kdecay     SnowOnly   Co-Pollutant     Co-Frac    Cdwf       Cinit     
;;-------------- ------ ---------- ---------- ---------- ---------- ---------- ---------------- ---------- ---------- ----------
TP               MG/L   .10        0.0        0.0        0.0        NO         *                0.0        0.0        0.0       

[LOADINGS]
;;Subcatchment   Pollutant        Buildup   
;;-------------- ---------------- ----------

[DWF]
;;Node           Constituent      Baseline   Patterns  
;;-------------- ---------------- ---------- ----------
007-311          FLOW             0          "1_007-308_W" "1_007-308_WE"
007-316          FLOW             0.006847992 "1_007-308_W" "1_007-308_WE"
007-322          FLOW             0.006933592 "1_007-308_W" "1_007-308_WE"
007-325          FLOW             0.009330389 "1_007-308_W" "1_007-308_WE"
007-334          FLOW             0.006505592 "1_007-308_W" "1_007-308_WE"
007-341          FLOW             0.007703991 "1_007-308_W" "1_007-308_WE"
007-347          FLOW             0.014295183 "1_007-308_W" "1_007-308_WE"

[HYDROGRAPHS]
;;Hydrograph     Rain Gage/Month  Response R        T        K        Dmax     Drecov   Dinit   
;;-------------- ---------------- -------- -------- -------- -------- -------- -------- --------
UHLow            RG02            
UHLow            All              Short    0.011    0.75     2        0        0        0       
UHLow            All              Medium   0.005    1.5      3        0        0        0       
UHLow            All              Long     0.004    2        3        0        0        0       


[RDII]
;;Node           Unit Hydrograph  Sewer Area
;;-------------- ---------------- ----------
007-311          UHLow            9.503954  
007-316          UHLow            7.01088   
007-322          UHLow            7.069704  
007-325          UHLow            15.163696 
007-334          UHLow            7.580216  
007-341          UHLow            7.512232  
007-347          UHLow            8.430656  

[CURVES]
;;Name           Type       X-Value    Y-Value   
;;-------------- ---------- ---------- ----------
;Belvoir_PS_Pumps (Depth-QMGD)
Belvoir_PS_Pumps PUMP4      0          0         
Belvoir_PS_Pumps            0.02       0.34625   
Belvoir_PS_Pumps            0.22       1.30875   
Belvoir_PS_Pumps            0.42       2.27125   
Belvoir_PS_Pumps            0.62       3.23375   
Belvoir_PS_Pumps            0.82       4.19625   
Belvoir_PS_Pumps            1.02       5.15875   
Belvoir_PS_Pumps            1.22       6.12125   
Belvoir_PS_Pumps            1.42       7.08375   
Belvoir_PS_Pumps            1.62       8.04625   
Belvoir_PS_Pumps            1.82       9.00875   
Belvoir_PS_Pumps            2.02       9.97125   
Belvoir_PS_Pumps            2.22       10.93375  
Belvoir_PS_Pumps            2.42       11.89625  
Belvoir_PS_Pumps            2.62       12.85875  
Belvoir_PS_Pumps            2.82       13.82125  
Belvoir_PS_Pumps            3.02       14.78375  
Belvoir_PS_Pumps            3.22       15.74625  
Belvoir_PS_Pumps            3.42       16.70875  
Belvoir_PS_Pumps            3.62       17.67125  
Belvoir_PS_Pumps            3.82       18.63375  
Belvoir_PS_Pumps            4.02       19.59625  
Belvoir_PS_Pumps            4.22       20.55875  
Belvoir_PS_Pumps            4.42       21.52125  
;
;PS 51 Fixed Flow (Head-QMGD)
PS51_PC          Pump3      10         .3625     
PS51_PC                     130        0.29      
PS51_PC                     175        .2175     
;
;CSO Control Facility #23 Flap Valve (H-QMGD)
SER_37_37G_TIDE_FLEX_FLAP_VALVE Rating     0          0         
SER_37_37G_TIDE_FLEX_FLAP_VALVE            0.418      0.287     
SER_37_37G_TIDE_FLEX_FLAP_VALVE            0.853      0.575     
SER_37_37G_TIDE_FLEX_FLAP_VALVE            1.305      0.862     
SER_37_37G_TIDE_FLEX_FLAP_VALVE            1.773      1.15      
SER_37_37G_TIDE_FLEX_FLAP_VALVE            2.258      1.437     
SER_37_37G_TIDE_FLEX_FLAP_VALVE            4.934      2.874     
SER_37_37G_TIDE_FLEX_FLAP_VALVE            11.834     5.748     
SER_37_37G_TIDE_FLEX_FLAP_VALVE            20.302     8.621     
;
;CSO Control Facility #23 Flap Valve (H-QMGD)
SER_35_TIDE_FLEX_FLAP_VALVE Rating     0          0         
SER_35_TIDE_FLEX_FLAP_VALVE            0.12       0.29      
SER_35_TIDE_FLEX_FLAP_VALVE            0.26       0.57      
SER_35_TIDE_FLEX_FLAP_VALVE            0.4        0.862     
SER_35_TIDE_FLEX_FLAP_VALVE            0.55       1.15      
SER_35_TIDE_FLEX_FLAP_VALVE            0.71       1.437     
SER_35_TIDE_FLEX_FLAP_VALVE            1.64       2.874     
SER_35_TIDE_FLEX_FLAP_VALVE            4.2        5.748     
SER_35_TIDE_FLEX_FLAP_VALVE            7.6        8.621     
SER_35_TIDE_FLEX_FLAP_VALVE            11.8       11.5      
SER_35_TIDE_FLEX_FLAP_VALVE            17         14.37     
;
;CSO Facility #23 Hydrobrake (H-QMGD)
CSO_23_HYDROBRAKE Rating     0          0         
CSO_23_HYDROBRAKE            0.25       0.2       
CSO_23_HYDROBRAKE            0.4        0.4       
CSO_23_HYDROBRAKE            0.45       0.5       
CSO_23_HYDROBRAKE            0.7        0.6       
CSO_23_HYDROBRAKE            1          0.7       
CSO_23_HYDROBRAKE            2.15       0.95      
CSO_23_HYDROBRAKE            3.5        1.2       
CSO_23_HYDROBRAKE            4.9        1.4       
CSO_23_HYDROBRAKE            8          1.7       
CSO_23_HYDROBRAKE            10         1.87      
CSO_23_HYDROBRAKE            11         1.9       
CSO_23_HYDROBRAKE            14         2.1       
;
;CSO Facility #22 Hydrobrake (H-QMGD)
CSO_22_HYDROBRAKE Rating     0          0         
CSO_22_HYDROBRAKE            0.25       0.2       
CSO_22_HYDROBRAKE            0.3        0.4       
CSO_22_HYDROBRAKE            0.4        0.5       
CSO_22_HYDROBRAKE            0.5        1         
CSO_22_HYDROBRAKE            0.7        1.5       
CSO_22_HYDROBRAKE            1.1        2.1       
CSO_22_HYDROBRAKE            1.5        2.3       
CSO_22_HYDROBRAKE            2.8        2.6       
CSO_22_HYDROBRAKE            4.3        3         
CSO_22_HYDROBRAKE            5.8        3.5       
CSO_22_HYDROBRAKE            7.8        4.5       
CSO_22_HYDROBRAKE            8.7        5         
;
;CSO Facility #22A Hydrobrake (H-QMGD)
CSO_22A_HYDROBRAKE Rating     0          0         
CSO_22A_HYDROBRAKE            0.15       0.04      
CSO_22A_HYDROBRAKE            0.2        0.11      
CSO_22A_HYDROBRAKE            0.4        0.18      
CSO_22A_HYDROBRAKE            0.6        0.2       
CSO_22A_HYDROBRAKE            0.8        0.22      
CSO_22A_HYDROBRAKE            1.1        0.23      
CSO_22A_HYDROBRAKE            2.1        0.26      
CSO_22A_HYDROBRAKE            2.4        0.27      
CSO_22A_HYDROBRAKE            2.6        0.285     
CSO_22A_HYDROBRAKE            3          0.45      
CSO_22A_HYDROBRAKE            3.6        0.7       
CSO_22A_HYDROBRAKE            3.8        0.8       
CSO_22A_HYDROBRAKE            4.25       1.2       
;
;CSO Facility #21 Hydrobrake (H-QMGD)
CSO_21_HYDROBRAKE Rating     0          0         
CSO_21_HYDROBRAKE            0.1        0.014     
CSO_21_HYDROBRAKE            0.2        0.13      
CSO_21_HYDROBRAKE            0.5        0.15      
CSO_21_HYDROBRAKE            1.8        0.2       
CSO_21_HYDROBRAKE            3.2        0.25      
CSO_21_HYDROBRAKE            5          0.3       
CSO_21_HYDROBRAKE            8          0.35      
CSO_21_HYDROBRAKE            10         0.38      
;
;CSO Facility #19 Hydrobrake (H-QMGD)
CSO_19_HYDROBRAKE Rating     0          0         
CSO_19_HYDROBRAKE            0.2        0.17      
CSO_19_HYDROBRAKE            0.36       0.54      
CSO_19_HYDROBRAKE            0.7        0.6       
CSO_19_HYDROBRAKE            1.3        0.72      
CSO_19_HYDROBRAKE            1.7        0.78      
CSO_19_HYDROBRAKE            3.5        1         
CSO_19_HYDROBRAKE            4.8        1.2       
CSO_19_HYDROBRAKE            5.8        1.35      
CSO_19_HYDROBRAKE            7          1.53      
CSO_19_HYDROBRAKE            8          1.7       
;
;NPDES CSO Outfall #15 Overflow Weir (H-QMGD)
NPDES_15A_OVERFLOW_WEIR Rating     0          0         
NPDES_15A_OVERFLOW_WEIR            0.1        0.23      
NPDES_15A_OVERFLOW_WEIR            0.2        0.73      
NPDES_15A_OVERFLOW_WEIR            0.3        1.43      
NPDES_15A_OVERFLOW_WEIR            0.4        2.31      
NPDES_15A_OVERFLOW_WEIR            0.5        3.35      
NPDES_15A_OVERFLOW_WEIR            0.6        4.54      
NPDES_15A_OVERFLOW_WEIR            0.7        5.87      
NPDES_15A_OVERFLOW_WEIR            0.8        7.34      
NPDES_15A_OVERFLOW_WEIR            0.9        8.9       
NPDES_15A_OVERFLOW_WEIR            1          10.65     
NPDES_15A_OVERFLOW_WEIR            1.2        14.43     
NPDES_15A_OVERFLOW_WEIR            1.4        18.65     
NPDES_15A_OVERFLOW_WEIR            1.6        23.3      
NPDES_15A_OVERFLOW_WEIR            1.8        28.35     
NPDES_15A_OVERFLOW_WEIR            2          33.8      
NPDES_15A_OVERFLOW_WEIR            3          66.4      
;
;CSO Facility #20 Hydrobrake (H-QMGD)
CSO20_HYDROBRAKE Rating     0          0         
CSO20_HYDROBRAKE            0.23       0.05      
CSO20_HYDROBRAKE            0.5        0.31      
CSO20_HYDROBRAKE            3          0.33      
CSO20_HYDROBRAKE            5.3        0.4       
CSO20_HYDROBRAKE            8.2        0.48      
CSO20_HYDROBRAKE            11.5       0.55      
CSO20_HYDROBRAKE            14         0.6       
;
;Belvoir Pump Station upstream Flap Valve/Weir (H-QMGD)
BELVOIR_PUMP_STATION_FLAP_GATE Rating     0          0         
BELVOIR_PUMP_STATION_FLAP_GATE            0.1        0         
BELVOIR_PUMP_STATION_FLAP_GATE            0.2        0.589     
BELVOIR_PUMP_STATION_FLAP_GATE            0.3        1.667     
BELVOIR_PUMP_STATION_FLAP_GATE            0.4        3.063     
BELVOIR_PUMP_STATION_FLAP_GATE            0.5        4.715     
BELVOIR_PUMP_STATION_FLAP_GATE            0.6        6.59      
BELVOIR_PUMP_STATION_FLAP_GATE            0.7        8.662     
BELVOIR_PUMP_STATION_FLAP_GATE            0.8        10.916    
BELVOIR_PUMP_STATION_FLAP_GATE            0.9        13.337    
BELVOIR_PUMP_STATION_FLAP_GATE            1          15.914    
BELVOIR_PUMP_STATION_FLAP_GATE            1.1        18.639    
BELVOIR_PUMP_STATION_FLAP_GATE            1.2        21.503    
BELVOIR_PUMP_STATION_FLAP_GATE            1.3        24.501    
BELVOIR_PUMP_STATION_FLAP_GATE            1.4        27.627    
BELVOIR_PUMP_STATION_FLAP_GATE            1.5        30.875    
BELVOIR_PUMP_STATION_FLAP_GATE            1.6        34.241    
BELVOIR_PUMP_STATION_FLAP_GATE            2.1        39.538    
BELVOIR_PUMP_STATION_FLAP_GATE            2.6        44.205    
BELVOIR_PUMP_STATION_FLAP_GATE            3.1        48.425    
BELVOIR_PUMP_STATION_FLAP_GATE            3.6        52.304    
BELVOIR_PUMP_STATION_FLAP_GATE            4.1        55.916    
BELVOIR_PUMP_STATION_FLAP_GATE            4.6        59.308    
BELVOIR_PUMP_STATION_FLAP_GATE            5.1        62.516    
;
;Cunette 025-373
025373_CNET      Shape      0          0         
025373_CNET                 0.01       0.09      
025373_CNET                 0.02       0.17      
025373_CNET                 0.05       0.24      
025373_CNET                 0.08       0.29      
025373_CNET                 0.12       0.32      
025373_CNET                 0.17       0.33      
025373_CNET                 0.22       0.83      
025373_CNET                 0.25       0.87      
025373_CNET                 0.37       0.97      
025373_CNET                 0.5        1         
025373_CNET                 0.63       0.97      
025373_CNET                 0.75       0.87      
025373_CNET                 0.85       0.71      
025373_CNET                 0.93       0.5       
025373_CNET                 0.98       0.26      
025373_CNET                 1          0         
;
017253_CNET      Shape      0          0         
017253_CNET                 0.006      0.086     
017253_CNET                 0.022      0.167     
017253_CNET                 0.049      0.236     
017253_CNET                 0.083      0.289     
017253_CNET                 0.124      0.322     
017253_CNET                 0.167      0.333     
017253_CNET                 0.224      0.833     
017253_CNET                 0.25       0.866     
017253_CNET                 0.371      0.966     
017253_CNET                 0.5        1         
017253_CNET                 0.629      0.966     
017253_CNET                 0.75       0.866     
017253_CNET                 0.854      0.707     
017253_CNET                 0.933      0.5       
017253_CNET                 0.983      0.259     
017253_CNET                 1          0         
;
025299_CNET      Shape      0          0         
025299_CNET                 0.003      0.043     
025299_CNET                 0.011      0.083     
025299_CNET                 0.024      0.118     
025299_CNET                 0.042      0.144     
025299_CNET                 0.062      0.161     
025299_CNET                 0.083      0.167     
025299_CNET                 0.186      0.778     
025299_CNET                 0.25       0.866     
025299_CNET                 0.371      0.966     
025299_CNET                 0.5        1         
025299_CNET                 0.629      0.966     
025299_CNET                 0.75       0.866     
025299_CNET                 0.854      0.707     
025299_CNET                 0.933      0.5       
025299_CNET                 0.983      0.259     
025299_CNET                 1          0         
;
025376_CNET      Shape      0          0         
025376_CNET                 0.003      0.05      
025376_CNET                 0.01       0.09      
025376_CNET                 0.03       0.13      
025376_CNET                 0.05       0.16      
025376_CNET                 0.07       0.18      
025376_CNET                 0.09       0.19      
025376_CNET                 0.22       0.83      
025376_CNET                 0.25       0.87      
025376_CNET                 0.37       0.97      
025376_CNET                 0.5        1         
025376_CNET                 0.63       0.97      
025376_CNET                 0.75       0.87      
025376_CNET                 0.85       0.71      
025376_CNET                 0.93       0.5       
025376_CNET                 0.98       0.26      
025376_CNET                 1          0         
;
;Belvoir PS WW Storage (Depth-AreaSqFt)
Belvoir_WW       Storage    0          96.5      
Belvoir_WW                  1.92       221.5     
Belvoir_WW                  1.93       387       
Belvoir_WW                  2          457       
Belvoir_WW                  4.6        219.2     
Belvoir_WW                  7.35       219.2     
Belvoir_WW                  7.36       32        
Belvoir_WW                  19.55      32        
Belvoir_WW                  19.56      3.1       
Belvoir_WW                  27.61      3.1       

[TIMESERIES]
;;Name           Date       Time       Value     
;;-------------- ---------- ---------- ----------
;Daily Water Level at Lake Washington
Lake_Washington_Level 01/01/1978 0          16.75     
Lake_Washington_Level 01/02/1978 0          16.76     
Lake_Washington_Level 01/03/1978 0          16.81     
Lake_Washington_Level 01/04/1978 0          16.75     
Lake_Washington_Level 01/05/1978 0          16.78     
Lake_Washington_Level 01/06/1978 0          16.77     
Lake_Washington_Level 01/07/1978 0          16.79     
Lake_Washington_Level 01/08/1978 0          16.8      
Lake_Washington_Level 01/09/1978 0          16.74     
Lake_Washington_Level 01/10/1978 0          16.8      
Lake_Washington_Level 01/11/1978 0          16.8      
Lake_Washington_Level 01/12/1978 0          16.77     
Lake_Washington_Level 01/13/1978 0          16.77     
Lake_Washington_Level 01/14/1978 0          16.78     
Lake_Washington_Level 01/15/1978 0          16.76     
Lake_Washington_Level 01/16/1978 0          16.76     
Lake_Washington_Level 01/17/1978 0          16.76     
Lake_Washington_Level 01/18/1978 0          16.77     
Lake_Washington_Level 01/19/1978 0          16.81     
Lake_Washington_Level 01/20/1978 0          16.84     
Lake_Washington_Level 01/21/1978 0          16.92     
Lake_Washington_Level 01/22/1978 0          16.94     
Lake_Washington_Level 01/23/1978 0          16.93     
Lake_Washington_Level 01/24/1978 0          16.98     
Lake_Washington_Level 01/25/1978 0          17.04     
Lake_Washington_Level 01/26/1978 0          17.08     
Lake_Washington_Level 01/27/1978 0          17.08     
Lake_Washington_Level 01/28/1978 0          17.06     
Lake_Washington_Level 01/29/1978 0          17.04     
Lake_Washington_Level 01/30/1978 0          17.03     
Lake_Washington_Level 01/31/1978 0          17.02     
Lake_Washington_Level 02/01/1978 0          17.03     
Lake_Washington_Level 02/02/1978 0          17.05     
Lake_Washington_Level 02/03/1978 0          16.99     
Lake_Washington_Level 02/04/1978 0          17.03     
Lake_Washington_Level 02/05/1978 0          17.07     
Lake_Washington_Level 02/06/1978 0          17.11     
Lake_Washington_Level 02/07/1978 0          17.05     
Lake_Washington_Level 02/08/1978 0          17.08     
Lake_Washington_Level 02/09/1978 0          17.08     
Lake_Washington_Level 02/10/1978 0          17.04     
Lake_Washington_Level 02/11/1978 0          17.05     
Lake_Washington_Level 02/12/1978 0          17.07     
Lake_Washington_Level 02/13/1978 0          17.07     
Lake_Washington_Level 02/14/1978 0          17.07     
Lake_Washington_Level 02/15/1978 0          17.07     
Lake_Washington_Level 02/16/1978 0          17.02     
Lake_Washington_Level 02/17/1978 0          17.05     
Lake_Washington_Level 02/18/1978 0          17.08     
Lake_Washington_Level 02/19/1978 0          17.07     
Lake_Washington_Level 02/20/1978 0          17.04     
Lake_Washington_Level 02/21/1978 0          17.05     
Lake_Washington_Level 02/22/1978 0          17.06     
Lake_Washington_Level 02/23/1978 0          17.06     
Lake_Washington_Level 02/24/1978 0          17.01     
Lake_Washington_Level 02/25/1978 0          17.05     
Lake_Washington_Level 02/26/1978 0          17.07     
Lake_Washington_Level 02/27/1978 0          17.03     
Lake_Washington_Level 02/28/1978 0          17.06     
Lake_Washington_Level 03/01/1978 0          17.1      
Lake_Washington_Level 03/02/1978 0          17.09     
Lake_Washington_Level 03/03/1978 0          17.13     
Lake_Washington_Level 03/04/1978 0          17.13     
Lake_Washington_Level 03/05/1978 0          17.16     
Lake_Washington_Level 03/06/1978 0          17.19     
Lake_Washington_Level 03/07/1978 0          17.26     
Lake_Washington_Level 03/08/1978 0          17.26     
Lake_Washington_Level 03/09/1978 0          17.28     
Lake_Washington_Level 03/10/1978 0          17.3      
Lake_Washington_Level 03/11/1978 0          17.34     
Lake_Washington_Level 03/12/1978 0          17.35     
Lake_Washington_Level 03/13/1978 0          17.33     
Lake_Washington_Level 03/14/1978 0          17.39     
Lake_Washington_Level 03/15/1978 0          17.42     
Lake_Washington_Level 03/16/1978 0          17.45     
Lake_Washington_Level 03/17/1978 0          17.47     
Lake_Washington_Level 03/18/1978 0          17.5      
Lake_Washington_Level 03/19/1978 0          17.53     
Lake_Washington_Level 03/20/1978 0          17.53     
Lake_Washington_Level 03/21/1978 0          17.56     
Lake_Washington_Level 03/22/1978 0          17.59     
Lake_Washington_Level 03/23/1978 0          17.62     
Lake_Washington_Level 03/24/1978 0          17.66     
Lake_Washington_Level 03/25/1978 0          17.67     
Lake_Washington_Level 03/26/1978 0          17.7      
Lake_Washington_Level 03/27/1978 0          17.68     
Lake_Washington_Level 03/28/1978 0          17.71     
Lake_Washington_Level 03/29/1978 0          17.77     
Lake_Washington_Level 03/30/1978 0          17.82     
Lake_Washington_Level 03/31/1978 0          17.85     
Lake_Washington_Level 04/01/1978 0          17.86     
Lake_Washington_Level 04/02/1978 0          17.91     
Lake_Washington_Level 04/03/1978 0          17.97     
Lake_Washington_Level 04/04/1978 0          18.03     
Lake_Washington_Level 04/05/1978 0          18.04     
Lake_Washington_Level 04/06/1978 0          18.03     
Lake_Washington_Level 04/07/1978 0          18.02     
Lake_Washington_Level 04/08/1978 0          18.04     
Lake_Washington_Level 04/09/1978 0          18.05     
Lake_Washington_Level 04/10/1978 0          18.1      
Lake_Washington_Level 04/11/1978 0          18.14     
Lake_Washington_Level 04/12/1978 0          18.19     
Lake_Washington_Level 04/13/1978 0          18.23     
Lake_Washington_Level 04/14/1978 0          18.23     
Lake_Washington_Level 04/15/1978 0          18.21     
Lake_Washington_Level 04/16/1978 0          18.39     
Lake_Washington_Level 04/17/1978 0          18.27     
Lake_Washington_Level 04/18/1978 0          18.3      
Lake_Washington_Level 04/19/1978 0          18.33     
Lake_Washington_Level 04/20/1978 0          18.36     
Lake_Washington_Level 04/21/1978 0          18.42     
Lake_Washington_Level 04/22/1978 0          18.45     
Lake_Washington_Level 04/23/1978 0          18.44     
Lake_Washington_Level 04/24/1978 0          18.45     
Lake_Washington_Level 04/25/1978 0          18.47     
Lake_Washington_Level 04/26/1978 0          18.5      
Lake_Washington_Level 04/27/1978 0          18.54     
Lake_Washington_Level 04/28/1978 0          18.49     
Lake_Washington_Level 04/29/1978 0          18.51     
Lake_Washington_Level 04/30/1978 0          18.59     
Lake_Washington_Level 05/01/1978 0          18.6      
Lake_Washington_Level 05/02/1978 0          18.6      
Lake_Washington_Level 05/03/1978 0          18.59     
Lake_Washington_Level 05/04/1978 0          18.56     
Lake_Washington_Level 05/05/1978 0          18.6      
Lake_Washington_Level 05/06/1978 0          18.63     
Lake_Washington_Level 05/07/1978 0          18.61     
Lake_Washington_Level 05/08/1978 0          18.6      
Lake_Washington_Level 05/09/1978 0          18.6      
Lake_Washington_Level 05/10/1978 0          18.6      
Lake_Washington_Level 05/11/1978 0          18.58     
Lake_Washington_Level 05/12/1978 0          18.59     
Lake_Washington_Level 05/13/1978 0          18.6      
Lake_Washington_Level 05/14/1978 0          18.56     
Lake_Washington_Level 05/15/1978 0          18.59     
Lake_Washington_Level 05/16/1978 0          18.61     
Lake_Washington_Level 05/17/1978 0          18.6      
Lake_Washington_Level 05/18/1978 0          18.58     
Lake_Washington_Level 05/19/1978 0          18.61     
Lake_Washington_Level 05/20/1978 0          18.59     
Lake_Washington_Level 05/21/1978 0          18.61     
Lake_Washington_Level 05/22/1978 0          18.63     
Lake_Washington_Level 05/23/1978 0          18.61     
Lake_Washington_Level 05/24/1978 0          18.6      
Lake_Washington_Level 05/25/1978 0          18.62     
Lake_Washington_Level 05/26/1978 0          18.6      
Lake_Washington_Level 05/27/1978 0          18.59     
Lake_Washington_Level 05/28/1978 0          18.6      
Lake_Washington_Level 05/29/1978 0          18.6      
Lake_Washington_Level 05/30/1978 0          18.59     
Lake_Washington_Level 05/31/1978 0          18.6      
Lake_Washington_Level 06/01/1978 0          18.6      
Lake_Washington_Level 06/02/1978 0          18.59     
Lake_Washington_Level 06/03/1978 0          18.56     
Lake_Washington_Level 06/04/1978 0          18.61     
Lake_Washington_Level 06/05/1978 0          18.61     
Lake_Washington_Level 06/06/1978 0          18.57     
Lake_Washington_Level 06/07/1978 0          18.59     
Lake_Washington_Level 06/08/1978 0          18.61     
Lake_Washington_Level 06/09/1978 0          18.64     
Lake_Washington_Level 06/10/1978 0          18.6      
Lake_Washington_Level 06/11/1978 0          18.56     
Lake_Washington_Level 06/12/1978 0          18.57     
Lake_Washington_Level 06/13/1978 0          18.59     
Lake_Washington_Level 06/14/1978 0          18.59     
Lake_Washington_Level 06/15/1978 0          18.58     
Lake_Washington_Level 06/16/1978 0          18.58     
Lake_Washington_Level 06/17/1978 0          18.59     
Lake_Washington_Level 06/18/1978 0          18.6      
Lake_Washington_Level 06/19/1978 0          18.6      
Lake_Washington_Level 06/20/1978 0          18.62     
Lake_Washington_Level 06/21/1978 0          18.58     
Lake_Washington_Level 06/22/1978 0          18.6      
Lake_Washington_Level 06/23/1978 0          18.57     
Lake_Washington_Level 06/24/1978 0          18.61     
Lake_Washington_Level 06/25/1978 0          18.56     
Lake_Washington_Level 06/26/1978 0          18.55     
Lake_Washington_Level 06/27/1978 0          18.51     
Lake_Washington_Level 06/28/1978 0          18.52     
Lake_Washington_Level 06/29/1978 0          18.52     
Lake_Washington_Level 06/30/1978 0          18.51     
Lake_Washington_Level 07/01/1978 0          18.49     
Lake_Washington_Level 07/02/1978 0          18.49     
Lake_Washington_Level 07/03/1978 0          18.5      
Lake_Washington_Level 07/04/1978 0          18.49     
Lake_Washington_Level 07/05/1978 0          18.49     
Lake_Washington_Level 07/06/1978 0          18.5      
Lake_Washington_Level 07/07/1978 0          18.47     
Lake_Washington_Level 07/08/1978 0          18.43     
Lake_Washington_Level 07/09/1978 0          18.43     
Lake_Washington_Level 07/10/1978 0          18.43     
Lake_Washington_Level 07/11/1978 0          18.39     
Lake_Washington_Level 07/12/1978 0          18.44     
Lake_Washington_Level 07/13/1978 0          18.33     
Lake_Washington_Level 07/14/1978 0          18.32     
Lake_Washington_Level 07/15/1978 0          18.29     
Lake_Washington_Level 07/16/1978 0          18.28     
Lake_Washington_Level 07/17/1978 0          18.3      
Lake_Washington_Level 07/18/1978 0          18.31     
Lake_Washington_Level 07/19/1978 0          18.27     
Lake_Washington_Level 07/20/1978 0          18.25     
Lake_Washington_Level 07/21/1978 0          18.25     
Lake_Washington_Level 07/22/1978 0          18.26     
Lake_Washington_Level 07/23/1978 0          18.25     
Lake_Washington_Level 07/24/1978 0          18.17     
Lake_Washington_Level 07/25/1978 0          18.15     
Lake_Washington_Level 07/26/1978 0          18.13     
Lake_Washington_Level 07/27/1978 0          18.19     
Lake_Washington_Level 07/28/1978 0          18.13     
Lake_Washington_Level 07/29/1978 0          18.11     
Lake_Washington_Level 07/30/1978 0          18.12     
Lake_Washington_Level 07/31/1978 0          18.08     
Lake_Washington_Level 08/01/1978 0          18.05     
Lake_Washington_Level 08/02/1978 0          18.05     
Lake_Washington_Level 08/03/1978 0          18.06     
Lake_Washington_Level 08/04/1978 0          18        
Lake_Washington_Level 08/05/1978 0          17.98     
Lake_Washington_Level 08/06/1978 0          17.94     
Lake_Washington_Level 08/07/1978 0          17.92     
Lake_Washington_Level 08/08/1978 0          17.85     
Lake_Washington_Level 08/09/1978 0          17.81     
Lake_Washington_Level 08/10/1978 0          17.8      
Lake_Washington_Level 08/11/1978 0          17.75     
Lake_Washington_Level 08/12/1978 0          17.71     
Lake_Washington_Level 08/13/1978 0          17.68     
Lake_Washington_Level 08/14/1978 0          17.65     
Lake_Washington_Level 08/15/1978 0          17.64     
Lake_Washington_Level 08/16/1978 0          17.64     
Lake_Washington_Level 08/17/1978 0          17.57     
Lake_Washington_Level 08/18/1978 0          17.56     
Lake_Washington_Level 08/19/1978 0          17.6      
Lake_Washington_Level 08/20/1978 0          17.56     
Lake_Washington_Level 08/21/1978 0          17.53     
Lake_Washington_Level 08/22/1978 0          17.51     
Lake_Washington_Level 08/23/1978 0          17.55     
Lake_Washington_Level 08/24/1978 0          17.51     
Lake_Washington_Level 08/25/1978 0          17.53     
Lake_Washington_Level 08/26/1978 0          17.51     
Lake_Washington_Level 08/27/1978 0          17.51     
Lake_Washington_Level 08/28/1978 0          17.47     
Lake_Washington_Level 08/29/1978 0          17.43     
Lake_Washington_Level 08/30/1978 0          17.43     
Lake_Washington_Level 08/31/1978 0          17.43     
Lake_Washington_Level 09/01/1978 0          17.46     
Lake_Washington_Level 09/02/1978 0          17.55     
Lake_Washington_Level 09/03/1978 0          17.54     
Lake_Washington_Level 09/04/1978 0          17.56     
Lake_Washington_Level 09/05/1978 0          17.56     
Lake_Washington_Level 09/06/1978 0          17.57     
Lake_Washington_Level 09/07/1978 0          17.57     
Lake_Washington_Level 09/08/1978 0          17.57     
Lake_Washington_Level 09/09/1978 0          17.63     
Lake_Washington_Level 09/10/1978 0          17.68     
Lake_Washington_Level 09/11/1978 0          17.67     
Lake_Washington_Level 09/12/1978 0          17.7      
Lake_Washington_Level 09/13/1978 0          17.71     
Lake_Washington_Level 09/14/1978 0          17.7      
Lake_Washington_Level 09/15/1978 0          17.68     
Lake_Washington_Level 09/16/1978 0          17.69     
Lake_Washington_Level 09/17/1978 0          17.71     
Lake_Washington_Level 09/18/1978 0          17.69     
Lake_Washington_Level 09/19/1978 0          17.73     
Lake_Washington_Level 09/20/1978 0          17.7      
Lake_Washington_Level 09/21/1978 0          17.71     
Lake_Washington_Level 09/22/1978 0          17.79     
Lake_Washington_Level 09/23/1978 0          18.04     
Lake_Washington_Level 09/24/1978 0          18.18     
Lake_Washington_Level 09/25/1978 0          18.19     
Lake_Washington_Level 09/26/1978 0          18.23     
Lake_Washington_Level 09/27/1978 0          18.24     
Lake_Washington_Level 09/28/1978 0          18.15     
Lake_Washington_Level 09/29/1978 0          18.18     
Lake_Washington_Level 09/30/1978 0          18.15     
Lake_Washington_Level 10/01/1978 0          18.14     
Lake_Washington_Level 10/02/1978 0          18.11     
Lake_Washington_Level 10/03/1978 0          18.14     
Lake_Washington_Level 10/04/1978 0          18.13     
Lake_Washington_Level 10/05/1978 0          18.15     
Lake_Washington_Level 10/06/1978 0          18.14     
Lake_Washington_Level 10/07/1978 0          18.05     
Lake_Washington_Level 10/08/1978 0          18.04     
Lake_Washington_Level 10/09/1978 0          18.06     
Lake_Washington_Level 10/10/1978 0          17.99     
Lake_Washington_Level 10/11/1978 0          17.95     
Lake_Washington_Level 10/12/1978 0          17.89     
Lake_Washington_Level 10/13/1978 0          17.85     
Lake_Washington_Level 10/14/1978 0          17.87     
Lake_Washington_Level 10/15/1978 0          17.88     
Lake_Washington_Level 10/16/1978 0          17.9      
Lake_Washington_Level 10/17/1978 0          17.92     
Lake_Washington_Level 10/18/1978 0          17.91     
Lake_Washington_Level 10/19/1978 0          17.91     
Lake_Washington_Level 10/20/1978 0          17.82     
Lake_Washington_Level 10/21/1978 0          17.75     
Lake_Washington_Level 10/22/1978 0          17.68     
Lake_Washington_Level 10/23/1978 0          17.7      
Lake_Washington_Level 10/24/1978 0          17.75     
Lake_Washington_Level 10/25/1978 0          17.74     
Lake_Washington_Level 10/26/1978 0          17.73     
Lake_Washington_Level 10/27/1978 0          17.72     
Lake_Washington_Level 10/28/1978 0          17.71     
Lake_Washington_Level 10/29/1978 0          17.66     
Lake_Washington_Level 10/30/1978 0          17.56     
Lake_Washington_Level 10/31/1978 0          17.49     
Lake_Washington_Level 11/01/1978 0          17.45     
Lake_Washington_Level 11/02/1978 0          17.44     
Lake_Washington_Level 11/03/1978 0          17.53     
Lake_Washington_Level 11/04/1978 0          17.61     
Lake_Washington_Level 11/05/1978 0          17.49     
Lake_Washington_Level 11/06/1978 0          17.47     
Lake_Washington_Level 11/07/1978 0          17.45     
Lake_Washington_Level 11/08/1978 0          17.43     
Lake_Washington_Level 11/09/1978 0          17.4      
Lake_Washington_Level 11/10/1978 0          17.37     
Lake_Washington_Level 11/11/1978 0          17.4      
Lake_Washington_Level 11/12/1978 0          17.35     
Lake_Washington_Level 11/13/1978 0          17.37     
Lake_Washington_Level 11/14/1978 0          17.36     
Lake_Washington_Level 11/15/1978 0          17.35     
Lake_Washington_Level 11/16/1978 0          17.3      
Lake_Washington_Level 11/17/1978 0          17.21     
Lake_Washington_Level 11/18/1978 0          17.19     
Lake_Washington_Level 11/19/1978 0          17.18     
Lake_Washington_Level 11/20/1978 0          17.14     
Lake_Washington_Level 11/21/1978 0          17.14     
Lake_Washington_Level 11/22/1978 0          17.16     
Lake_Washington_Level 11/23/1978 0          17.13     
Lake_Washington_Level 11/24/1978 0          17.09     
Lake_Washington_Level 11/25/1978 0          16.99     
Lake_Washington_Level 11/26/1978 0          17        
Lake_Washington_Level 11/27/1978 0          16.98     
Lake_Washington_Level 11/28/1978 0          16.99     
Lake_Washington_Level 11/29/1978 0          16.99     
Lake_Washington_Level 11/30/1978 0          16.91     
Lake_Washington_Level 12/01/1978 0          16.79     
Lake_Washington_Level 12/02/1978 0          16.75     
Lake_Washington_Level 12/03/1978 0          16.77     
Lake_Washington_Level 12/04/1978 0          16.79     
Lake_Washington_Level 12/05/1978 0          16.81     
Lake_Washington_Level 12/06/1978 0          16.83     
Lake_Washington_Level 12/07/1978 0          16.76     
Lake_Washington_Level 12/08/1978 0          16.8      
Lake_Washington_Level 12/09/1978 0          16.8      
Lake_Washington_Level 12/10/1978 0          16.78     
Lake_Washington_Level 12/11/1978 0          16.75     
Lake_Washington_Level 12/12/1978 0          16.75     
Lake_Washington_Level 12/13/1978 0          16.78     
Lake_Washington_Level 12/14/1978 0          16.78     
Lake_Washington_Level 12/15/1978 0          16.78     
Lake_Washington_Level 12/16/1978 0          16.76     
Lake_Washington_Level 12/17/1978 0          16.76     
Lake_Washington_Level 12/18/1978 0          16.78     
Lake_Washington_Level 12/19/1978 0          16.8      
Lake_Washington_Level 12/20/1978 0          16.79     
Lake_Washington_Level 12/21/1978 0          16.79     
Lake_Washington_Level 12/22/1978 0          16.77     
Lake_Washington_Level 12/23/1978 0          16.76     
Lake_Washington_Level 12/24/1978 0          16.79     
Lake_Washington_Level 12/25/1978 0          16.79     
Lake_Washington_Level 12/26/1978 0          16.77     
Lake_Washington_Level 12/27/1978 0          16.78     
Lake_Washington_Level 12/28/1978 0          16.81     
Lake_Washington_Level 12/29/1978 0          16.78     
Lake_Washington_Level 12/30/1978 0          16.78     
Lake_Washington_Level 12/31/1978 0          16.79     
Lake_Washington_Level 01/01/1979 0          16.81     
Lake_Washington_Level 01/02/1979 0          16.81     
Lake_Washington_Level 01/03/1979 0          16.81     
Lake_Washington_Level 01/04/1979 0          16.79     
Lake_Washington_Level 01/05/1979 0          16.75     
Lake_Washington_Level 01/06/1979 0          16.76     
Lake_Washington_Level 01/07/1979 0          16.76     
Lake_Washington_Level 01/08/1979 0          16.76     
Lake_Washington_Level 01/09/1979 0          16.76     
Lake_Washington_Level 01/10/1979 0          16.82     
Lake_Washington_Level 01/11/1979 0          16.75     
Lake_Washington_Level 01/12/1979 0          16.74     
Lake_Washington_Level 01/13/1979 0          16.77     
Lake_Washington_Level 01/14/1979 0          16.79     
Lake_Washington_Level 01/15/1979 0          16.77     
Lake_Washington_Level 01/16/1979 0          16.77     
Lake_Washington_Level 01/17/1979 0          16.81     
Lake_Washington_Level 01/18/1979 0          16.76     
Lake_Washington_Level 01/19/1979 0          16.76     
Lake_Washington_Level 01/20/1979 0          16.78     
Lake_Washington_Level 01/21/1979 0          16.78     
Lake_Washington_Level 01/22/1979 0          16.76     
Lake_Washington_Level 01/23/1979 0          16.78     
Lake_Washington_Level 01/24/1979 0          16.77     
Lake_Washington_Level 01/25/1979 0          16.77     
Lake_Washington_Level 01/26/1979 0          16.76     
Lake_Washington_Level 01/27/1979 0          16.78     
Lake_Washington_Level 01/28/1979 0          16.79     
Lake_Washington_Level 01/29/1979 0          16.78     
Lake_Washington_Level 01/30/1979 0          16.76     
Lake_Washington_Level 01/31/1979 0          16.77     
Lake_Washington_Level 02/01/1979 0          16.8      
Lake_Washington_Level 02/02/1979 0          16.77     
Lake_Washington_Level 02/03/1979 0          16.75     
Lake_Washington_Level 02/04/1979 0          16.75     
Lake_Washington_Level 02/05/1979 0          16.78     
Lake_Washington_Level 02/06/1979 0          16.78     
Lake_Washington_Level 02/07/1979 0          16.78     
Lake_Washington_Level 02/08/1979 0          16.75     
Lake_Washington_Level 02/09/1979 0          16.76     
Lake_Washington_Level 02/10/1979 0          16.75     
Lake_Washington_Level 02/11/1979 0          16.75     
Lake_Washington_Level 02/12/1979 0          16.78     
Lake_Washington_Level 02/13/1979 0          16.76     
Lake_Washington_Level 02/14/1979 0          16.75     
Lake_Washington_Level 02/15/1979 0          16.76     
Lake_Washington_Level 02/16/1979 0          16.78     
Lake_Washington_Level 02/17/1979 0          16.8      
Lake_Washington_Level 02/18/1979 0          16.85     
Lake_Washington_Level 02/19/1979 0          16.86     
Lake_Washington_Level 02/20/1979 0          16.88     
Lake_Washington_Level 02/21/1979 0          16.92     
Lake_Washington_Level 02/22/1979 0          16.91     
Lake_Washington_Level 02/23/1979 0          16.93     
Lake_Washington_Level 02/24/1979 0          17.02     
Lake_Washington_Level 02/25/1979 0          17        
Lake_Washington_Level 02/26/1979 0          16.99     
Lake_Washington_Level 02/27/1979 0          17.08     
Lake_Washington_Level 02/28/1979 0          17.08     
Lake_Washington_Level 03/01/1979 0          17.11     
Lake_Washington_Level 03/02/1979 0          17.19     
Lake_Washington_Level 03/03/1979 0          17.2      
Lake_Washington_Level 03/04/1979 0          17.17     
Lake_Washington_Level 03/05/1979 0          17.21     
Lake_Washington_Level 03/06/1979 0          17.28     
Lake_Washington_Level 03/07/1979 0          17.3      
Lake_Washington_Level 03/08/1979 0          17.31     
Lake_Washington_Level 03/09/1979 0          17.32     
Lake_Washington_Level 03/10/1979 0          17.37     
Lake_Washington_Level 03/11/1979 0          17.41     
Lake_Washington_Level 03/12/1979 0          17.38     
Lake_Washington_Level 03/13/1979 0          17.43     
Lake_Washington_Level 03/14/1979 0          17.47     
Lake_Washington_Level 03/15/1979 0          17.45     
Lake_Washington_Level 03/16/1979 0          17.49     
Lake_Washington_Level 03/17/1979 0          17.45     
Lake_Washington_Level 03/18/1979 0          17.45     
Lake_Washington_Level 03/19/1979 0          17.53     
Lake_Washington_Level 03/20/1979 0          17.55     
Lake_Washington_Level 03/21/1979 0          17.62     
Lake_Washington_Level 03/22/1979 0          17.63     
Lake_Washington_Level 03/23/1979 0          17.65     
Lake_Washington_Level 03/24/1979 0          17.66     
Lake_Washington_Level 03/25/1979 0          17.68     
Lake_Washington_Level 03/26/1979 0          17.7      
Lake_Washington_Level 03/27/1979 0          17.73     
Lake_Washington_Level 03/28/1979 0          17.78     
Lake_Washington_Level 03/29/1979 0          17.8      
Lake_Washington_Level 03/30/1979 0          17.83     
Lake_Washington_Level 03/31/1979 0          17.76     
Lake_Washington_Level 04/01/1979 0          17.81     
Lake_Washington_Level 04/02/1979 0          17.85     
Lake_Washington_Level 04/03/1979 0          17.9      
Lake_Washington_Level 04/04/1979 0          17.97     
Lake_Washington_Level 04/05/1979 0          18        
Lake_Washington_Level 04/06/1979 0          18.03     
Lake_Washington_Level 04/07/1979 0          18.02     
Lake_Washington_Level 04/08/1979 0          18        
Lake_Washington_Level 04/09/1979 0          18.07     
Lake_Washington_Level 04/10/1979 0          18.14     
Lake_Washington_Level 04/11/1979 0          18.1      
Lake_Washington_Level 04/12/1979 0          18.16     
Lake_Washington_Level 04/13/1979 0          18.21     
Lake_Washington_Level 04/14/1979 0          18.16     
Lake_Washington_Level 04/15/1979 0          18.17     
Lake_Washington_Level 04/16/1979 0          18.23     
Lake_Washington_Level 04/17/1979 0          18.24     
Lake_Washington_Level 04/18/1979 0          18.25     
Lake_Washington_Level 04/19/1979 0          18.31     
Lake_Washington_Level 04/20/1979 0          18.33     
Lake_Washington_Level 04/21/1979 0          18.38     
Lake_Washington_Level 04/22/1979 0          18.37     
Lake_Washington_Level 04/23/1979 0          18.41     
Lake_Washington_Level 04/24/1979 0          18.43     
Lake_Washington_Level 04/25/1979 0          18.45     
Lake_Washington_Level 04/26/1979 0          18.48     
Lake_Washington_Level 04/27/1979 0          18.5      
Lake_Washington_Level 04/28/1979 0          18.6      
Lake_Washington_Level 04/29/1979 0          18.48     
Lake_Washington_Level 04/30/1979 0          18.49     
Lake_Washington_Level 05/01/1979 0          18.5      
Lake_Washington_Level 05/02/1979 0          18.57     
Lake_Washington_Level 05/03/1979 0          18.55     
Lake_Washington_Level 05/04/1979 0          18.62     
Lake_Washington_Level 05/05/1979 0          18.58     
Lake_Washington_Level 05/06/1979 0          18.58     
Lake_Washington_Level 05/07/1979 0          18.58     
Lake_Washington_Level 05/08/1979 0          18.61     
Lake_Washington_Level 05/09/1979 0          18.57     
Lake_Washington_Level 05/10/1979 0          18.52     
Lake_Washington_Level 05/11/1979 0          18.59     
Lake_Washington_Level 05/12/1979 0          18.6      
Lake_Washington_Level 05/13/1979 0          18.55     
Lake_Washington_Level 05/14/1979 0          18.56     
Lake_Washington_Level 05/15/1979 0          18.69     
Lake_Washington_Level 05/16/1979 0          18.59     
Lake_Washington_Level 05/17/1979 0          18.64     
Lake_Washington_Level 05/18/1979 0          18.61     
Lake_Washington_Level 05/19/1979 0          18.55     
Lake_Washington_Level 05/20/1979 0          18.55     
Lake_Washington_Level 05/21/1979 0          18.58     
Lake_Washington_Level 05/22/1979 0          18.58     
Lake_Washington_Level 05/23/1979 0          18.53     
Lake_Washington_Level 05/24/1979 0          18.62     
Lake_Washington_Level 05/25/1979 0          18.57     
Lake_Washington_Level 05/26/1979 0          18.6      
Lake_Washington_Level 05/27/1979 0          18.6      
Lake_Washington_Level 05/28/1979 0          18.61     
Lake_Washington_Level 05/29/1979 0          18.55     
Lake_Washington_Level 05/30/1979 0          18.61     
Lake_Washington_Level 05/31/1979 0          18.56     
Lake_Washington_Level 06/01/1979 0          18.56     
Lake_Washington_Level 06/02/1979 0          18.55     
Lake_Washington_Level 06/03/1979 0          18.65     
Lake_Washington_Level 06/04/1979 0          18.56     
Lake_Washington_Level 06/05/1979 0          18.61     
Lake_Washington_Level 06/06/1979 0          18.59     
Lake_Washington_Level 06/07/1979 0          18.61     
Lake_Washington_Level 06/08/1979 0          18.61     
Lake_Washington_Level 06/09/1979 0          18.59     
Lake_Washington_Level 06/10/1979 0          18.56     
Lake_Washington_Level 06/11/1979 0          18.55     
Lake_Washington_Level 06/12/1979 0          18.61     
Lake_Washington_Level 06/13/1979 0          18.57     
Lake_Washington_Level 06/14/1979 0          18.61     
Lake_Washington_Level 06/15/1979 0          18.59     
Lake_Washington_Level 06/16/1979 0          18.59     
Lake_Washington_Level 06/17/1979 0          18.6      
Lake_Washington_Level 06/18/1979 0          18.62     
Lake_Washington_Level 06/19/1979 0          18.61     
Lake_Washington_Level 06/20/1979 0          18.63     
Lake_Washington_Level 06/21/1979 0          18.56     
Lake_Washington_Level 06/22/1979 0          18.61     
Lake_Washington_Level 06/23/1979 0          18.6      
Lake_Washington_Level 06/24/1979 0          18.6      
Lake_Washington_Level 06/25/1979 0          18.57     
Lake_Washington_Level 06/26/1979 0          18.56     
Lake_Washington_Level 06/27/1979 0          18.65     
Lake_Washington_Level 06/28/1979 0          18.63     
Lake_Washington_Level 06/29/1979 0          18.48     
Lake_Washington_Level 06/30/1979 0          18.49     
Lake_Washington_Level 07/01/1979 0          18.5      
Lake_Washington_Level 07/02/1979 0          18.58     
Lake_Washington_Level 07/03/1979 0          18.6      
Lake_Washington_Level 07/04/1979 0          18.57     
Lake_Washington_Level 07/05/1979 0          18.58     
Lake_Washington_Level 07/06/1979 0          18.52     
Lake_Washington_Level 07/07/1979 0          18.52     
Lake_Washington_Level 07/08/1979 0          18.55     
Lake_Washington_Level 07/09/1979 0          18.51     
Lake_Washington_Level 07/10/1979 0          18.48     
Lake_Washington_Level 07/11/1979 0          18.51     
Lake_Washington_Level 07/12/1979 0          18.47     
Lake_Washington_Level 07/13/1979 0          18.46     
Lake_Washington_Level 07/14/1979 0          18.49     
Lake_Washington_Level 07/15/1979 0          18.46     
Lake_Washington_Level 07/16/1979 0          18.43     
Lake_Washington_Level 07/17/1979 0          18.4      
Lake_Washington_Level 07/18/1979 0          18.39     
Lake_Washington_Level 07/19/1979 0          18.37     
Lake_Washington_Level 07/20/1979 0          18.36     
Lake_Washington_Level 07/21/1979 0          18.33     
Lake_Washington_Level 07/22/1979 0          18.29     
Lake_Washington_Level 07/23/1979 0          18.22     
Lake_Washington_Level 07/24/1979 0          18.21     
Lake_Washington_Level 07/25/1979 0          18.2      
Lake_Washington_Level 07/26/1979 0          18.1      
Lake_Washington_Level 07/27/1979 0          18.13     
Lake_Washington_Level 07/28/1979 0          18.11     
Lake_Washington_Level 07/29/1979 0          18.05     
Lake_Washington_Level 07/30/1979 0          18.01     
Lake_Washington_Level 07/31/1979 0          17.99     
Lake_Washington_Level 08/01/1979 0          17.96     
Lake_Washington_Level 08/02/1979 0          17.95     
Lake_Washington_Level 08/03/1979 0          17.91     
Lake_Washington_Level 08/04/1979 0          17.84     
Lake_Washington_Level 08/05/1979 0          17.81     
Lake_Washington_Level 08/06/1979 0          17.78     
Lake_Washington_Level 08/07/1979 0          17.73     
Lake_Washington_Level 08/08/1979 0          17.7      
Lake_Washington_Level 08/09/1979 0          17.69     
Lake_Washington_Level 08/10/1979 0          17.64     
Lake_Washington_Level 08/11/1979 0          17.6      
Lake_Washington_Level 08/12/1979 0          17.58     
Lake_Washington_Level 08/13/1979 0          17.55     
Lake_Washington_Level 08/14/1979 0          17.53     
Lake_Washington_Level 08/15/1979 0          17.51     
Lake_Washington_Level 08/16/1979 0          17.47     
Lake_Washington_Level 08/17/1979 0          17.47     
Lake_Washington_Level 08/18/1979 0          17.43     
Lake_Washington_Level 08/19/1979 0          17.4      
Lake_Washington_Level 08/20/1979 0          17.42     
Lake_Washington_Level 08/21/1979 0          17.41     
Lake_Washington_Level 08/22/1979 0          17.39     
Lake_Washington_Level 08/23/1979 0          17.37     
Lake_Washington_Level 08/24/1979 0          17.35     
Lake_Washington_Level 08/25/1979 0          17.31     
Lake_Washington_Level 08/26/1979 0          17.29     
Lake_Washington_Level 08/27/1979 0          17.29     
Lake_Washington_Level 08/28/1979 0          17.25     
Lake_Washington_Level 08/29/1979 0          17.22     
Lake_Washington_Level 08/30/1979 0          17.23     
Lake_Washington_Level 08/31/1979 0          17.17     
Lake_Washington_Level 09/01/1979 0          17.17     
Lake_Washington_Level 09/02/1979 0          17.22     
Lake_Washington_Level 09/03/1979 0          17.25     
Lake_Washington_Level 09/04/1979 0          17.25     
Lake_Washington_Level 09/05/1979 0          17.26     
Lake_Washington_Level 09/06/1979 0          17.26     
Lake_Washington_Level 09/07/1979 0          17.25     
Lake_Washington_Level 09/08/1979 0          17.27     
Lake_Washington_Level 09/09/1979 0          17.3      
Lake_Washington_Level 09/10/1979 0          17.27     
Lake_Washington_Level 09/11/1979 0          17.26     
Lake_Washington_Level 09/12/1979 0          17.24     
Lake_Washington_Level 09/13/1979 0          17.23     
Lake_Washington_Level 09/14/1979 0          17.22     
Lake_Washington_Level 09/15/1979 0          17.19     
Lake_Washington_Level 09/16/1979 0          17.2      
Lake_Washington_Level 09/17/1979 0          17.21     
Lake_Washington_Level 09/18/1979 0          17.21     
Lake_Washington_Level 09/19/1979 0          17.21     
Lake_Washington_Level 09/20/1979 0          17.21     
Lake_Washington_Level 09/21/1979 0          17.21     
Lake_Washington_Level 09/22/1979 0          17.21     
Lake_Washington_Level 09/23/1979 0          17.21     
Lake_Washington_Level 09/24/1979 0          17.2      
Lake_Washington_Level 09/25/1979 0          17.2      
Lake_Washington_Level 09/26/1979 0          17.21     
Lake_Washington_Level 09/27/1979 0          17.2      
Lake_Washington_Level 09/28/1979 0          17.17     
Lake_Washington_Level 09/29/1979 0          17.11     
Lake_Washington_Level 09/30/1979 0          17.09     
Lake_Washington_Level 10/01/1979 0          17.03     
Lake_Washington_Level 10/02/1979 0          17.02     
Lake_Washington_Level 10/03/1979 0          17        
Lake_Washington_Level 10/04/1979 0          17        
Lake_Washington_Level 10/05/1979 0          16.97     
Lake_Washington_Level 10/06/1979 0          16.96     
Lake_Washington_Level 10/07/1979 0          16.95     
Lake_Washington_Level 10/08/1979 0          16.93     
Lake_Washington_Level 10/09/1979 0          16.94     
Lake_Washington_Level 10/10/1979 0          16.91     
Lake_Washington_Level 10/11/1979 0          16.91     
Lake_Washington_Level 10/12/1979 0          16.89     
Lake_Washington_Level 10/13/1979 0          16.89     
Lake_Washington_Level 10/14/1979 0          16.89     
Lake_Washington_Level 10/15/1979 0          16.91     
Lake_Washington_Level 10/16/1979 0          16.91     
Lake_Washington_Level 10/17/1979 0          16.91     
Lake_Washington_Level 10/18/1979 0          16.91     
Lake_Washington_Level 10/19/1979 0          16.95     
Lake_Washington_Level 10/20/1979 0          16.95     
Lake_Washington_Level 10/21/1979 0          16.88     
Lake_Washington_Level 10/22/1979 0          16.91     
Lake_Washington_Level 10/23/1979 0          16.97     
Lake_Washington_Level 10/24/1979 0          16.96     
Lake_Washington_Level 10/25/1979 0          17.1      
Lake_Washington_Level 10/26/1979 0          17.16     
Lake_Washington_Level 10/27/1979 0          17.25     
Lake_Washington_Level 10/28/1979 0          17.29     
Lake_Washington_Level 10/29/1979 0          17.21     
Lake_Washington_Level 10/30/1979 0          17.14     
Lake_Washington_Level 10/31/1979 0          17.13     
Lake_Washington_Level 11/01/1979 0          17.11     
Lake_Washington_Level 11/02/1979 0          17.12     
Lake_Washington_Level 11/03/1979 0          17.16     
Lake_Washington_Level 11/04/1979 0          17.18     
Lake_Washington_Level 11/05/1979 0          17.19     
Lake_Washington_Level 11/06/1979 0          17.18     
Lake_Washington_Level 11/07/1979 0          17.16     
Lake_Washington_Level 11/08/1979 0          17.16     
Lake_Washington_Level 11/09/1979 0          17.18     
Lake_Washington_Level 11/10/1979 0          17.16     
Lake_Washington_Level 11/11/1979 0          17.15     
Lake_Washington_Level 11/12/1979 0          17.13     
Lake_Washington_Level 11/13/1979 0          17.07     
Lake_Washington_Level 11/14/1979 0          17.05     
Lake_Washington_Level 11/15/1979 0          17.05     
Lake_Washington_Level 11/16/1979 0          17.05     
Lake_Washington_Level 11/17/1979 0          17.05     
Lake_Washington_Level 11/18/1979 0          17.02     
Lake_Washington_Level 11/19/1979 0          17        
Lake_Washington_Level 11/20/1979 0          16.98     
Lake_Washington_Level 11/21/1979 0          16.95     
Lake_Washington_Level 11/22/1979 0          16.98     
Lake_Washington_Level 11/23/1979 0          17.02     
Lake_Washington_Level 11/24/1979 0          16.99     
Lake_Washington_Level 11/25/1979 0          16.97     
Lake_Washington_Level 11/26/1979 0          16.93     
Lake_Washington_Level 11/27/1979 0          16.9      
Lake_Washington_Level 11/28/1979 0          16.84     
Lake_Washington_Level 11/29/1979 0          16.78     
Lake_Washington_Level 11/30/1979 0          16.77     
Lake_Washington_Level 12/01/1979 0          16.75     
Lake_Washington_Level 12/02/1979 0          16.83     
Lake_Washington_Level 12/03/1979 0          16.77     
Lake_Washington_Level 12/04/1979 0          16.81     
Lake_Washington_Level 12/05/1979 0          16.82     
Lake_Washington_Level 12/06/1979 0          16.74     
Lake_Washington_Level 12/07/1979 0          16.78     
Lake_Washington_Level 12/08/1979 0          16.77     
Lake_Washington_Level 12/09/1979 0          16.76     
Lake_Washington_Level 12/10/1979 0          16.75     
Lake_Washington_Level 12/11/1979 0          16.73     
Lake_Washington_Level 12/12/1979 0          16.76     
Lake_Washington_Level 12/13/1979 0          16.79     
Lake_Washington_Level 12/14/1979 0          16.8      
Lake_Washington_Level 12/15/1979 0          16.89     
Lake_Washington_Level 12/16/1979 0          16.78     
Lake_Washington_Level 12/17/1979 0          16.8      
Lake_Washington_Level 12/18/1979 0          16.78     
Lake_Washington_Level 12/19/1979 0          16.78     
Lake_Washington_Level 12/20/1979 0          16.78     
Lake_Washington_Level 12/21/1979 0          16.79     
Lake_Washington_Level 12/22/1979 0          16.76     
Lake_Washington_Level 12/23/1979 0          16.78     
Lake_Washington_Level 12/24/1979 0          16.75     
Lake_Washington_Level 12/25/1979 0          16.75     
Lake_Washington_Level 12/26/1979 0          16.75     
Lake_Washington_Level 12/27/1979 0          16.75     
Lake_Washington_Level 12/28/1979 0          16.79     
Lake_Washington_Level 12/29/1979 0          16.75     
Lake_Washington_Level 12/30/1979 0          16.76     
Lake_Washington_Level 12/31/1979 0          16.78     
Lake_Washington_Level 01/01/1980 0          16.76     
Lake_Washington_Level 01/02/1980 0          16.76     
Lake_Washington_Level 01/03/1980 0          16.77     
Lake_Washington_Level 01/04/1980 0          16.75     
Lake_Washington_Level 01/05/1980 0          16.75     
Lake_Washington_Level 01/06/1980 0          16.75     
Lake_Washington_Level 01/07/1980 0          16.75     
Lake_Washington_Level 01/08/1980 0          16.75     
Lake_Washington_Level 01/09/1980 0          16.78     
Lake_Washington_Level 01/10/1980 0          16.76     
Lake_Washington_Level 01/11/1980 0          16.75     
Lake_Washington_Level 01/12/1980 0          16.82     
Lake_Washington_Level 01/13/1980 0          16.75     
Lake_Washington_Level 01/14/1980 0          16.76     
Lake_Washington_Level 01/15/1980 0          16.76     
Lake_Washington_Level 01/16/1980 0          16.76     
Lake_Washington_Level 01/17/1980 0          16.76     
Lake_Washington_Level 01/18/1980 0          16.77     
Lake_Washington_Level 01/19/1980 0          16.77     
Lake_Washington_Level 01/20/1980 0          16.77     
Lake_Washington_Level 01/21/1980 0          16.76     
Lake_Washington_Level 01/22/1980 0          16.76     
Lake_Washington_Level 01/23/1980 0          16.76     
Lake_Washington_Level 01/24/1980 0          16.75     
Lake_Washington_Level 01/25/1980 0          16.75     
Lake_Washington_Level 01/26/1980 0          16.75     
Lake_Washington_Level 01/27/1980 0          16.75     
Lake_Washington_Level 01/28/1980 0          16.75     
Lake_Washington_Level 01/29/1980 0          16.75     
Lake_Washington_Level 01/30/1980 0          16.75     
Lake_Washington_Level 01/31/1980 0          16.75     
Lake_Washington_Level 02/01/1980 0          16.75     
Lake_Washington_Level 02/02/1980 0          16.76     
Lake_Washington_Level 02/03/1980 0          16.77     
Lake_Washington_Level 02/04/1980 0          16.78     
Lake_Washington_Level 02/05/1980 0          16.77     
Lake_Washington_Level 02/06/1980 0          16.77     
Lake_Washington_Level 02/07/1980 0          16.75     
Lake_Washington_Level 02/08/1980 0          16.77     
Lake_Washington_Level 02/09/1980 0          16.76     
Lake_Washington_Level 02/10/1980 0          16.76     
Lake_Washington_Level 02/11/1980 0          16.78     
Lake_Washington_Level 02/12/1980 0          16.77     
Lake_Washington_Level 02/13/1980 0          16.77     
Lake_Washington_Level 02/14/1980 0          16.78     
Lake_Washington_Level 02/15/1980 0          16.77     
Lake_Washington_Level 02/16/1980 0          16.8      
Lake_Washington_Level 02/17/1980 0          16.78     
Lake_Washington_Level 02/18/1980 0          16.85     
Lake_Washington_Level 02/19/1980 0          16.86     
Lake_Washington_Level 02/20/1980 0          16.89     
Lake_Washington_Level 02/21/1980 0          16.9      
Lake_Washington_Level 02/22/1980 0          16.95     
Lake_Washington_Level 02/23/1980 0          16.97     
Lake_Washington_Level 02/24/1980 0          16.97     
Lake_Washington_Level 02/25/1980 0          17        
Lake_Washington_Level 02/26/1980 0          17.05     
Lake_Washington_Level 02/27/1980 0          17.05     
Lake_Washington_Level 02/28/1980 0          17.1      
Lake_Washington_Level 02/29/1980 0          17.1      
Lake_Washington_Level 03/01/1980 0          17.15     
Lake_Washington_Level 03/02/1980 0          17.14     
Lake_Washington_Level 03/03/1980 0          17.2      
Lake_Washington_Level 03/04/1980 0          17.24     
Lake_Washington_Level 03/05/1980 0          17.22     
Lake_Washington_Level 03/06/1980 0          17.27     
Lake_Washington_Level 03/07/1980 0          17.29     
Lake_Washington_Level 03/08/1980 0          17.3      
Lake_Washington_Level 03/09/1980 0          17.32     
Lake_Washington_Level 03/10/1980 0          17.35     
Lake_Washington_Level 03/11/1980 0          17.43     
Lake_Washington_Level 03/12/1980 0          17.4      
Lake_Washington_Level 03/13/1980 0          17.42     
Lake_Washington_Level 03/14/1980 0          17.45     
Lake_Washington_Level 03/15/1980 0          17.44     
Lake_Washington_Level 03/16/1980 0          17.54     
Lake_Washington_Level 03/17/1980 0          17.46     
Lake_Washington_Level 03/18/1980 0          17.58     
Lake_Washington_Level 03/19/1980 0          17.58     
Lake_Washington_Level 03/20/1980 0          17.62     
Lake_Washington_Level 03/21/1980 0          17.58     
Lake_Washington_Level 03/22/1980 0          17.6      
Lake_Washington_Level 03/23/1980 0          17.62     
Lake_Washington_Level 03/24/1980 0          17.7      
Lake_Washington_Level 03/25/1980 0          17.7      
Lake_Washington_Level 03/26/1980 0          17.71     
Lake_Washington_Level 03/27/1980 0          17.75     
Lake_Washington_Level 03/28/1980 0          17.76     
Lake_Washington_Level 03/29/1980 0          17.81     
Lake_Washington_Level 03/30/1980 0          17.81     
Lake_Washington_Level 03/31/1980 0          17.83     
Lake_Washington_Level 04/01/1980 0          17.8      
Lake_Washington_Level 04/02/1980 0          17.85     
Lake_Washington_Level 04/03/1980 0          17.92     
Lake_Washington_Level 04/04/1980 0          17.95     
Lake_Washington_Level 04/05/1980 0          18        
Lake_Washington_Level 04/06/1980 0          18        
Lake_Washington_Level 04/07/1980 0          18.01     
Lake_Washington_Level 04/08/1980 0          18.05     
Lake_Washington_Level 04/09/1980 0          18.11     
Lake_Washington_Level 04/10/1980 0          18.13     
Lake_Washington_Level 04/11/1980 0          18.24     
Lake_Washington_Level 04/12/1980 0          18.17     
Lake_Washington_Level 04/13/1980 0          18.21     
Lake_Washington_Level 04/14/1980 0          18.23     
Lake_Washington_Level 04/15/1980 0          18.23     
Lake_Washington_Level 04/16/1980 0          18.29     
Lake_Washington_Level 04/17/1980 0          18.32     
Lake_Washington_Level 04/18/1980 0          18.37     
Lake_Washington_Level 04/19/1980 0          18.34     
Lake_Washington_Level 04/20/1980 0          18.34     
Lake_Washington_Level 04/21/1980 0          18.43     
Lake_Washington_Level 04/22/1980 0          18.4      
Lake_Washington_Level 04/23/1980 0          18.43     
Lake_Washington_Level 04/24/1980 0          18.45     
Lake_Washington_Level 04/25/1980 0          18.52     
Lake_Washington_Level 04/26/1980 0          18.51     
Lake_Washington_Level 04/27/1980 0          18.51     
Lake_Washington_Level 04/28/1980 0          18.58     
Lake_Washington_Level 04/29/1980 0          18.59     
Lake_Washington_Level 04/30/1980 0          18.57     
Lake_Washington_Level 05/01/1980 0          18.58     
Lake_Washington_Level 05/02/1980 0          18.58     
Lake_Washington_Level 05/03/1980 0          18.6      
Lake_Washington_Level 05/04/1980 0          18.65     
Lake_Washington_Level 05/05/1980 0          18.63     
Lake_Washington_Level 05/06/1980 0          18.64     
Lake_Washington_Level 05/07/1980 0          18.61     
Lake_Washington_Level 05/08/1980 0          18.59     
Lake_Washington_Level 05/09/1980 0          18.59     
Lake_Washington_Level 05/10/1980 0          18.59     
Lake_Washington_Level 05/11/1980 0          18.62     
Lake_Washington_Level 05/12/1980 0          18.61     
Lake_Washington_Level 05/13/1980 0          18.61     
Lake_Washington_Level 05/14/1980 0          18.62     
Lake_Washington_Level 05/15/1980 0          18.61     
Lake_Washington_Level 05/16/1980 0          18.57     
Lake_Washington_Level 05/17/1980 0          18.54     
Lake_Washington_Level 05/18/1980 0          18.59     
Lake_Washington_Level 05/19/1980 0          18.56     
Lake_Washington_Level 05/20/1980 0          18.59     
Lake_Washington_Level 05/21/1980 0          18.61     
Lake_Washington_Level 05/22/1980 0          18.61     
Lake_Washington_Level 05/23/1980 0          18.59     
Lake_Washington_Level 05/24/1980 0          18.59     
Lake_Washington_Level 05/25/1980 0          18.59     
Lake_Washington_Level 05/26/1980 0          18.62     
Lake_Washington_Level 05/27/1980 0          18.58     
Lake_Washington_Level 05/28/1980 0          18.52     
Lake_Washington_Level 05/29/1980 0          18.57     
Lake_Washington_Level 05/30/1980 0          18.6      
Lake_Washington_Level 05/31/1980 0          18.58     
Lake_Washington_Level 06/01/1980 0          18.62     
Lake_Washington_Level 06/02/1980 0          18.65     
Lake_Washington_Level 06/03/1980 0          18.57     
Lake_Washington_Level 06/04/1980 0          18.61     
Lake_Washington_Level 06/05/1980 0          18.62     
Lake_Washington_Level 06/06/1980 0          18.63     
Lake_Washington_Level 06/07/1980 0          18.56     
Lake_Washington_Level 06/08/1980 0          18.59     
Lake_Washington_Level 06/09/1980 0          18.62     
Lake_Washington_Level 06/10/1980 0          18.6      
Lake_Washington_Level 06/11/1980 0          18.62     
Lake_Washington_Level 06/12/1980 0          18.59     
Lake_Washington_Level 06/13/1980 0          18.58     
Lake_Washington_Level 06/14/1980 0          18.6      
Lake_Washington_Level 06/15/1980 0          18.6      
Lake_Washington_Level 06/16/1980 0          18.58     
Lake_Washington_Level 06/17/1980 0          18.63     
Lake_Washington_Level 06/18/1980 0          18.59     
Lake_Washington_Level 06/19/1980 0          18.6      
Lake_Washington_Level 06/20/1980 0          18.58     
Lake_Washington_Level 06/21/1980 0          18.59     
Lake_Washington_Level 06/22/1980 0          18.59     
Lake_Washington_Level 06/23/1980 0          18.59     
Lake_Washington_Level 06/24/1980 0          18.6      
Lake_Washington_Level 06/25/1980 0          18.63     
Lake_Washington_Level 06/26/1980 0          18.57     
Lake_Washington_Level 06/27/1980 0          18.56     
Lake_Washington_Level 06/28/1980 0          18.62     
Lake_Washington_Level 06/29/1980 0          18.6      
Lake_Washington_Level 06/30/1980 0          18.56     
Lake_Washington_Level 07/01/1980 0          18.55     
Lake_Washington_Level 07/02/1980 0          18.57     
Lake_Washington_Level 07/03/1980 0          18.58     
Lake_Washington_Level 07/04/1980 0          18.57     
Lake_Washington_Level 07/05/1980 0          18.55     
Lake_Washington_Level 07/06/1980 0          18.55     
Lake_Washington_Level 07/07/1980 0          18.55     
Lake_Washington_Level 07/08/1980 0          18.54     
Lake_Washington_Level 07/09/1980 0          18.52     
Lake_Washington_Level 07/10/1980 0          18.52     
Lake_Washington_Level 07/11/1980 0          18.53     
Lake_Washington_Level 07/12/1980 0          18.52     
Lake_Washington_Level 07/13/1980 0          18.55     
Lake_Washington_Level 07/14/1980 0          18.54     
Lake_Washington_Level 07/15/1980 0          18.55     
Lake_Washington_Level 07/16/1980 0          18.53     
Lake_Washington_Level 07/17/1980 0          18.52     
Lake_Washington_Level 07/18/1980 0          18.51     
Lake_Washington_Level 07/19/1980 0          18.5      
Lake_Washington_Level 07/20/1980 0          18.48     
Lake_Washington_Level 07/21/1980 0          18.45     
Lake_Washington_Level 07/22/1980 0          18.45     
Lake_Washington_Level 07/23/1980 0          18.45     
Lake_Washington_Level 07/24/1980 0          18.43     
Lake_Washington_Level 07/25/1980 0          18.41     
Lake_Washington_Level 07/26/1980 0          18.41     
Lake_Washington_Level 07/27/1980 0          18.37     
Lake_Washington_Level 07/28/1980 0          18.29     
Lake_Washington_Level 07/29/1980 0          18.3      
Lake_Washington_Level 07/30/1980 0          18.3      
Lake_Washington_Level 07/31/1980 0          18.26     
Lake_Washington_Level 08/01/1980 0          18.24     
Lake_Washington_Level 08/02/1980 0          18.22     
Lake_Washington_Level 08/03/1980 0          18.2      
Lake_Washington_Level 08/04/1980 0          18.15     
Lake_Washington_Level 08/05/1980 0          18.09     
Lake_Washington_Level 08/06/1980 0          18.12     
Lake_Washington_Level 08/07/1980 0          18.06     
Lake_Washington_Level 08/08/1980 0          18.04     
Lake_Washington_Level 08/09/1980 0          18        
Lake_Washington_Level 08/10/1980 0          17.97     
Lake_Washington_Level 08/11/1980 0          17.99     
Lake_Washington_Level 08/12/1980 0          17.96     
Lake_Washington_Level 08/13/1980 0          17.96     
Lake_Washington_Level 08/14/1980 0          17.96     
Lake_Washington_Level 08/15/1980 0          17.89     
Lake_Washington_Level 08/16/1980 0          17.89     
Lake_Washington_Level 08/17/1980 0          17.87     
Lake_Washington_Level 08/18/1980 0          17.86     
Lake_Washington_Level 08/19/1980 0          17.84     
Lake_Washington_Level 08/20/1980 0          17.85     
Lake_Washington_Level 08/21/1980 0          17.79     
Lake_Washington_Level 08/22/1980 0          17.78     
Lake_Washington_Level 08/23/1980 0          17.77     
Lake_Washington_Level 08/24/1980 0          17.76     
Lake_Washington_Level 08/25/1980 0          17.78     
Lake_Washington_Level 08/26/1980 0          17.74     
Lake_Washington_Level 08/27/1980 0          17.69     
Lake_Washington_Level 08/28/1980 0          17.68     
Lake_Washington_Level 08/29/1980 0          17.77     
Lake_Washington_Level 08/30/1980 0          17.72     
Lake_Washington_Level 08/31/1980 0          17.64     
Lake_Washington_Level 09/01/1980 0          17.74     
Lake_Washington_Level 09/02/1980 0          17.75     
Lake_Washington_Level 09/03/1980 0          17.72     
Lake_Washington_Level 09/04/1980 0          17.68     
Lake_Washington_Level 09/05/1980 0          17.71     
Lake_Washington_Level 09/06/1980 0          17.71     
Lake_Washington_Level 09/07/1980 0          17.71     
Lake_Washington_Level 09/08/1980 0          17.69     
Lake_Washington_Level 09/09/1980 0          17.7      
Lake_Washington_Level 09/10/1980 0          17.7      
Lake_Washington_Level 09/11/1980 0          17.69     
Lake_Washington_Level 09/12/1980 0          17.68     
Lake_Washington_Level 09/13/1980 0          17.71     
Lake_Washington_Level 09/14/1980 0          17.71     
Lake_Washington_Level 09/15/1980 0          17.68     
Lake_Washington_Level 09/16/1980 0          17.69     
Lake_Washington_Level 09/17/1980 0          17.71     
Lake_Washington_Level 09/18/1980 0          17.67     
Lake_Washington_Level 09/19/1980 0          17.67     
Lake_Washington_Level 09/20/1980 0          17.65     
Lake_Washington_Level 09/21/1980 0          17.68     
Lake_Washington_Level 09/22/1980 0          17.7      
Lake_Washington_Level 09/23/1980 0          17.67     
Lake_Washington_Level 09/24/1980 0          17.67     
Lake_Washington_Level 09/25/1980 0          17.67     
Lake_Washington_Level 09/26/1980 0          17.66     
Lake_Washington_Level 09/27/1980 0          17.66     
Lake_Washington_Level 09/28/1980 0          17.65     
Lake_Washington_Level 09/29/1980 0          17.64     
Lake_Washington_Level 09/30/1980 0          17.69     
Lake_Washington_Level 10/01/1980 0          17.69     
Lake_Washington_Level 10/02/1980 0          17.69     
Lake_Washington_Level 10/03/1980 0          17.67     
Lake_Washington_Level 10/04/1980 0          17.66     
Lake_Washington_Level 10/05/1980 0          17.65     
Lake_Washington_Level 10/06/1980 0          17.68     
Lake_Washington_Level 10/07/1980 0          17.65     
Lake_Washington_Level 10/08/1980 0          17.65     
Lake_Washington_Level 10/09/1980 0          17.65     
Lake_Washington_Level 10/10/1980 0          17.62     
Lake_Washington_Level 10/11/1980 0          17.65     
Lake_Washington_Level 10/12/1980 0          17.66     
Lake_Washington_Level 10/13/1980 0          17.67     
Lake_Washington_Level 10/14/1980 0          17.63     
Lake_Washington_Level 10/15/1980 0          17.68     
Lake_Washington_Level 10/16/1980 0          17.6      
Lake_Washington_Level 10/17/1980 0          17.6      
Lake_Washington_Level 10/18/1980 0          17.53     
Lake_Washington_Level 10/19/1980 0          17.55     
Lake_Washington_Level 10/20/1980 0          17.58     
Lake_Washington_Level 10/21/1980 0          17.56     
Lake_Washington_Level 10/22/1980 0          17.51     
Lake_Washington_Level 10/23/1980 0          17.49     
Lake_Washington_Level 10/24/1980 0          17.46     
Lake_Washington_Level 10/25/1980 0          17.46     
Lake_Washington_Level 10/26/1980 0          17.44     
Lake_Washington_Level 10/27/1980 0          17.42     
Lake_Washington_Level 10/28/1980 0          17.37     
Lake_Washington_Level 10/29/1980 0          17.37     
Lake_Washington_Level 10/30/1980 0          17.37     
Lake_Washington_Level 10/31/1980 0          17.27     
Lake_Washington_Level 11/01/1980 0          17.28     
Lake_Washington_Level 11/02/1980 0          17.25     
Lake_Washington_Level 11/03/1980 0          17.23     
Lake_Washington_Level 11/04/1980 0          17.29     
Lake_Washington_Level 11/05/1980 0          17.23     
Lake_Washington_Level 11/06/1980 0          17.25     
Lake_Washington_Level 11/07/1980 0          17.27     
Lake_Washington_Level 11/08/1980 0          17.26     
Lake_Washington_Level 11/09/1980 0          17.21     
Lake_Washington_Level 11/10/1980 0          17.1      
Lake_Washington_Level 11/11/1980 0          17.1      
Lake_Washington_Level 11/12/1980 0          17.1      
Lake_Washington_Level 11/13/1980 0          17.11     
Lake_Washington_Level 11/14/1980 0          17.06     
Lake_Washington_Level 11/15/1980 0          17.03     
Lake_Washington_Level 11/16/1980 0          17.03     
Lake_Washington_Level 11/17/1980 0          16.98     
Lake_Washington_Level 11/18/1980 0          16.99     
Lake_Washington_Level 11/19/1980 0          16.96     
Lake_Washington_Level 11/20/1980 0          16.93     
Lake_Washington_Level 11/21/1980 0          16.9      
Lake_Washington_Level 11/22/1980 0          16.87     
Lake_Washington_Level 11/23/1980 0          16.86     
Lake_Washington_Level 11/24/1980 0          16.87     
Lake_Washington_Level 11/25/1980 0          16.87     
Lake_Washington_Level 11/26/1980 0          16.83     
Lake_Washington_Level 11/27/1980 0          16.81     
Lake_Washington_Level 11/28/1980 0          16.8      
Lake_Washington_Level 11/29/1980 0          16.78     
Lake_Washington_Level 11/30/1980 0          16.78     
Lake_Washington_Level 12/01/1980 0          16.75     
Lake_Washington_Level 12/02/1980 0          16.76     
Lake_Washington_Level 12/03/1980 0          16.77     
Lake_Washington_Level 12/04/1980 0          16.77     
Lake_Washington_Level 12/05/1980 0          16.75     
Lake_Washington_Level 12/06/1980 0          16.77     
Lake_Washington_Level 12/07/1980 0          16.79     
Lake_Washington_Level 12/08/1980 0          16.77     
Lake_Washington_Level 12/09/1980 0          16.77     
Lake_Washington_Level 12/10/1980 0          16.76     
Lake_Washington_Level 12/11/1980 0          16.78     
Lake_Washington_Level 12/12/1980 0          16.76     
Lake_Washington_Level 12/13/1980 0          16.75     
Lake_Washington_Level 12/14/1980 0          16.75     
Lake_Washington_Level 12/15/1980 0          16.75     
Lake_Washington_Level 12/16/1980 0          16.76     
Lake_Washington_Level 12/17/1980 0          16.77     
Lake_Washington_Level 12/18/1980 0          16.76     
Lake_Washington_Level 12/19/1980 0          16.77     
Lake_Washington_Level 12/20/1980 0          16.77     
Lake_Washington_Level 12/21/1980 0          16.76     
Lake_Washington_Level 12/22/1980 0          16.76     
Lake_Washington_Level 12/23/1980 0          16.76     
Lake_Washington_Level 12/24/1980 0          16.77     
Lake_Washington_Level 12/25/1980 0          16.77     
Lake_Washington_Level 12/26/1980 0          16.8      
Lake_Washington_Level 12/27/1980 0          16.78     
Lake_Washington_Level 12/28/1980 0          16.78     
Lake_Washington_Level 12/29/1980 0          16.78     
Lake_Washington_Level 12/30/1980 0          16.77     
Lake_Washington_Level 12/31/1980 0          16.8      
Lake_Washington_Level 01/01/1981 0          16.75     
Lake_Washington_Level 01/02/1981 0          16.76     
Lake_Washington_Level 01/03/1981 0          16.77     
Lake_Washington_Level 01/04/1981 0          16.77     
Lake_Washington_Level 01/05/1981 0          16.77     
Lake_Washington_Level 01/06/1981 0          16.77     
Lake_Washington_Level 01/07/1981 0          16.77     
Lake_Washington_Level 01/08/1981 0          16.77     
Lake_Washington_Level 01/09/1981 0          16.77     
Lake_Washington_Level 01/10/1981 0          16.78     
Lake_Washington_Level 01/11/1981 0          16.78     
Lake_Washington_Level 01/12/1981 0          16.77     
Lake_Washington_Level 01/13/1981 0          16.76     
Lake_Washington_Level 01/14/1981 0          16.77     
Lake_Washington_Level 01/15/1981 0          16.77     
Lake_Washington_Level 01/16/1981 0          16.77     
Lake_Washington_Level 01/17/1981 0          16.77     
Lake_Washington_Level 01/18/1981 0          16.78     
Lake_Washington_Level 01/19/1981 0          16.77     
Lake_Washington_Level 01/20/1981 0          16.75     
Lake_Washington_Level 01/21/1981 0          16.78     
Lake_Washington_Level 01/22/1981 0          16.75     
Lake_Washington_Level 01/23/1981 0          16.77     
Lake_Washington_Level 01/24/1981 0          16.78     
Lake_Washington_Level 01/25/1981 0          16.76     
Lake_Washington_Level 01/26/1981 0          16.76     
Lake_Washington_Level 01/27/1981 0          16.77     
Lake_Washington_Level 01/28/1981 0          16.76     
Lake_Washington_Level 01/29/1981 0          16.77     
Lake_Washington_Level 01/30/1981 0          16.77     
Lake_Washington_Level 01/31/1981 0          16.76     
Lake_Washington_Level 02/01/1981 0          16.78     
Lake_Washington_Level 02/02/1981 0          16.77     
Lake_Washington_Level 02/03/1981 0          16.76     
Lake_Washington_Level 02/04/1981 0          16.75     
Lake_Washington_Level 02/05/1981 0          16.76     
Lake_Washington_Level 02/06/1981 0          16.77     
Lake_Washington_Level 02/07/1981 0          16.77     
Lake_Washington_Level 02/08/1981 0          16.78     
Lake_Washington_Level 02/09/1981 0          16.77     
Lake_Washington_Level 02/10/1981 0          16.77     
Lake_Washington_Level 02/11/1981 0          16.78     
Lake_Washington_Level 02/12/1981 0          16.76     
Lake_Washington_Level 02/13/1981 0          16.76     
Lake_Washington_Level 02/14/1981 0          16.78     
Lake_Washington_Level 02/15/1981 0          16.79     
Lake_Washington_Level 02/16/1981 0          16.82     
Lake_Washington_Level 02/17/1981 0          16.82     
Lake_Washington_Level 02/18/1981 0          16.82     
Lake_Washington_Level 02/19/1981 0          16.88     
Lake_Washington_Level 02/20/1981 0          16.88     
Lake_Washington_Level 02/21/1981 0          16.85     
Lake_Washington_Level 02/22/1981 0          16.94     
Lake_Washington_Level 02/23/1981 0          16.99     
Lake_Washington_Level 02/24/1981 0          16.97     
Lake_Washington_Level 02/25/1981 0          16.98     
Lake_Washington_Level 02/26/1981 0          17        
Lake_Washington_Level 02/27/1981 0          17.09     
Lake_Washington_Level 02/28/1981 0          17.1      
Lake_Washington_Level 03/01/1981 0          17.15     
Lake_Washington_Level 03/02/1981 0          17.15     
Lake_Washington_Level 03/03/1981 0          17.19     
Lake_Washington_Level 03/04/1981 0          17.2      
Lake_Washington_Level 03/05/1981 0          17.22     
Lake_Washington_Level 03/06/1981 0          17.24     
Lake_Washington_Level 03/07/1981 0          17.24     
Lake_Washington_Level 03/08/1981 0          17.28     
Lake_Washington_Level 03/09/1981 0          17.37     
Lake_Washington_Level 03/10/1981 0          17.37     
Lake_Washington_Level 03/11/1981 0          17.37     
Lake_Washington_Level 03/12/1981 0          17.42     
Lake_Washington_Level 03/13/1981 0          17.4      
Lake_Washington_Level 03/14/1981 0          17.44     
Lake_Washington_Level 03/15/1981 0          17.48     
Lake_Washington_Level 03/16/1981 0          17.54     
Lake_Washington_Level 03/17/1981 0          17.5      
Lake_Washington_Level 03/18/1981 0          17.52     
Lake_Washington_Level 03/19/1981 0          17.53     
Lake_Washington_Level 03/20/1981 0          17.59     
Lake_Washington_Level 03/21/1981 0          17.57     
Lake_Washington_Level 03/22/1981 0          17.64     
Lake_Washington_Level 03/23/1981 0          17.66     
Lake_Washington_Level 03/24/1981 0          17.7      
Lake_Washington_Level 03/25/1981 0          17.7      
Lake_Washington_Level 03/26/1981 0          17.7      
Lake_Washington_Level 03/27/1981 0          17.68     
Lake_Washington_Level 03/28/1981 0          17.68     
Lake_Washington_Level 03/29/1981 0          17.79     
Lake_Washington_Level 03/30/1981 0          17.79     
Lake_Washington_Level 03/31/1981 0          17.8      
Lake_Washington_Level 04/01/1981 0          17.86     
Lake_Washington_Level 04/02/1981 0          17.9      
Lake_Washington_Level 04/03/1981 0          17.94     
Lake_Washington_Level 04/04/1981 0          17.96     
Lake_Washington_Level 04/05/1981 0          17.96     
Lake_Washington_Level 04/06/1981 0          18        
Lake_Washington_Level 04/07/1981 0          18.02     
Lake_Washington_Level 04/08/1981 0          18.08     
Lake_Washington_Level 04/09/1981 0          18.1      
Lake_Washington_Level 04/10/1981 0          18.1      
Lake_Washington_Level 04/11/1981 0          18.12     
Lake_Washington_Level 04/12/1981 0          18.1      
Lake_Washington_Level 04/13/1981 0          18.2      
Lake_Washington_Level 04/14/1981 0          18.21     
Lake_Washington_Level 04/15/1981 0          18.2      
Lake_Washington_Level 04/16/1981 0          18.26     
Lake_Washington_Level 04/17/1981 0          18.29     
Lake_Washington_Level 04/18/1981 0          18.29     
Lake_Washington_Level 04/19/1981 0          18.33     
Lake_Washington_Level 04/20/1981 0          18.33     
Lake_Washington_Level 04/21/1981 0          18.36     
Lake_Washington_Level 04/22/1981 0          18.43     
Lake_Washington_Level 04/23/1981 0          18.43     
Lake_Washington_Level 04/24/1981 0          18.47     
Lake_Washington_Level 04/25/1981 0          18.49     
Lake_Washington_Level 04/26/1981 0          18.5      
Lake_Washington_Level 04/27/1981 0          18.51     
Lake_Washington_Level 04/28/1981 0          18.55     
Lake_Washington_Level 04/29/1981 0          18.57     
Lake_Washington_Level 04/30/1981 0          18.66     
Lake_Washington_Level 05/01/1981 0          18.6      
Lake_Washington_Level 05/02/1981 0          18.58     
Lake_Washington_Level 05/03/1981 0          18.59     
Lake_Washington_Level 05/04/1981 0          18.6      
Lake_Washington_Level 05/05/1981 0          18.59     
Lake_Washington_Level 05/06/1981 0          18.59     
Lake_Washington_Level 05/07/1981 0          18.59     
Lake_Washington_Level 05/08/1981 0          18.59     
Lake_Washington_Level 05/09/1981 0          18.59     
Lake_Washington_Level 05/10/1981 0          18.59     
Lake_Washington_Level 05/11/1981 0          18.59     
Lake_Washington_Level 05/12/1981 0          18.6      
Lake_Washington_Level 05/13/1981 0          18.58     
Lake_Washington_Level 05/14/1981 0          18.61     
Lake_Washington_Level 05/15/1981 0          18.58     
Lake_Washington_Level 05/16/1981 0          18.58     
Lake_Washington_Level 05/17/1981 0          18.59     
Lake_Washington_Level 05/18/1981 0          18.56     
Lake_Washington_Level 05/19/1981 0          18.6      
Lake_Washington_Level 05/20/1981 0          18.59     
Lake_Washington_Level 05/21/1981 0          18.59     
Lake_Washington_Level 05/22/1981 0          18.55     
Lake_Washington_Level 05/23/1981 0          18.58     
Lake_Washington_Level 05/24/1981 0          18.6      
Lake_Washington_Level 05/25/1981 0          18.59     
Lake_Washington_Level 05/26/1981 0          18.59     
Lake_Washington_Level 05/27/1981 0          18.59     
Lake_Washington_Level 05/28/1981 0          18.56     
Lake_Washington_Level 05/29/1981 0          18.61     
Lake_Washington_Level 05/30/1981 0          18.58     
Lake_Washington_Level 05/31/1981 0          18.58     
Lake_Washington_Level 06/01/1981 0          18.59     
Lake_Washington_Level 06/02/1981 0          18.62     
Lake_Washington_Level 06/03/1981 0          18.59     
Lake_Washington_Level 06/04/1981 0          18.59     
Lake_Washington_Level 06/05/1981 0          18.58     
Lake_Washington_Level 06/06/1981 0          18.57     
Lake_Washington_Level 06/07/1981 0          18.57     
Lake_Washington_Level 06/08/1981 0          18.58     
Lake_Washington_Level 06/09/1981 0          18.59     
Lake_Washington_Level 06/10/1981 0          18.59     
Lake_Washington_Level 06/11/1981 0          18.59     
Lake_Washington_Level 06/12/1981 0          18.64     
Lake_Washington_Level 06/13/1981 0          18.59     
Lake_Washington_Level 06/14/1981 0          18.6      
Lake_Washington_Level 06/15/1981 0          18.59     
Lake_Washington_Level 06/16/1981 0          18.59     
Lake_Washington_Level 06/17/1981 0          18.58     
Lake_Washington_Level 06/18/1981 0          18.58     
Lake_Washington_Level 06/19/1981 0          18.57     
Lake_Washington_Level 06/20/1981 0          18.56     
Lake_Washington_Level 06/21/1981 0          18.61     
Lake_Washington_Level 06/22/1981 0          18.58     
Lake_Washington_Level 06/23/1981 0          18.61     
Lake_Washington_Level 06/24/1981 0          18.6      
Lake_Washington_Level 06/25/1981 0          18.59     
Lake_Washington_Level 06/26/1981 0          18.59     
Lake_Washington_Level 06/27/1981 0          18.58     
Lake_Washington_Level 06/28/1981 0          18.58     
Lake_Washington_Level 06/29/1981 0          18.57     
Lake_Washington_Level 06/30/1981 0          18.6      
Lake_Washington_Level 07/01/1981 0          18.6      
Lake_Washington_Level 07/02/1981 0          18.59     
Lake_Washington_Level 07/03/1981 0          18.59     
Lake_Washington_Level 07/04/1981 0          18.59     
Lake_Washington_Level 07/05/1981 0          18.59     
Lake_Washington_Level 07/06/1981 0          18.59     
Lake_Washington_Level 07/07/1981 0          18.6      
Lake_Washington_Level 07/08/1981 0          18.57     
Lake_Washington_Level 07/09/1981 0          18.58     
Lake_Washington_Level 07/10/1981 0          18.58     
Lake_Washington_Level 07/11/1981 0          18.6      
Lake_Washington_Level 07/12/1981 0          18.57     
Lake_Washington_Level 07/13/1981 0          18.6      
Lake_Washington_Level 07/14/1981 0          18.56     
Lake_Washington_Level 07/15/1981 0          18.56     
Lake_Washington_Level 07/16/1981 0          18.59     
Lake_Washington_Level 07/17/1981 0          18.59     
Lake_Washington_Level 07/18/1981 0          18.58     
Lake_Washington_Level 07/19/1981 0          18.57     
Lake_Washington_Level 07/20/1981 0          18.58     
Lake_Washington_Level 07/21/1981 0          18.6      
Lake_Washington_Level 07/22/1981 0          18.59     
Lake_Washington_Level 07/23/1981 0          18.6      
Lake_Washington_Level 07/24/1981 0          18.61     
Lake_Washington_Level 07/25/1981 0          18.59     
Lake_Washington_Level 07/26/1981 0          18.59     
Lake_Washington_Level 07/27/1981 0          18.59     
Lake_Washington_Level 07/28/1981 0          18.57     
Lake_Washington_Level 07/29/1981 0          18.59     
Lake_Washington_Level 07/30/1981 0          18.59     
Lake_Washington_Level 07/31/1981 0          18.58     
Lake_Washington_Level 08/01/1981 0          18.57     
Lake_Washington_Level 08/02/1981 0          18.58     
Lake_Washington_Level 08/03/1981 0          18.58     
Lake_Washington_Level 08/04/1981 0          18.51     
Lake_Washington_Level 08/05/1981 0          18.57     
Lake_Washington_Level 08/06/1981 0          18.52     
Lake_Washington_Level 08/07/1981 0          18.48     
Lake_Washington_Level 08/08/1981 0          18.48     
Lake_Washington_Level 08/09/1981 0          18.47     
Lake_Washington_Level 08/10/1981 0          18.47     
Lake_Washington_Level 08/11/1981 0          18.46     
Lake_Washington_Level 08/12/1981 0          18.37     
Lake_Washington_Level 08/13/1981 0          18.44     
Lake_Washington_Level 08/14/1981 0          18.39     
Lake_Washington_Level 08/15/1981 0          18.38     
Lake_Washington_Level 08/16/1981 0          18.35     
Lake_Washington_Level 08/17/1981 0          18.31     
Lake_Washington_Level 08/18/1981 0          18.31     
Lake_Washington_Level 08/19/1981 0          18.31     
Lake_Washington_Level 08/20/1981 0          18.25     
Lake_Washington_Level 08/21/1981 0          18.24     
Lake_Washington_Level 08/22/1981 0          18.2      
Lake_Washington_Level 08/23/1981 0          18.18     
Lake_Washington_Level 08/24/1981 0          18.17     
Lake_Washington_Level 08/25/1981 0          18.15     
Lake_Washington_Level 08/26/1981 0          18.15     
Lake_Washington_Level 08/27/1981 0          18.13     
Lake_Washington_Level 08/28/1981 0          18.09     
Lake_Washington_Level 08/29/1981 0          18.09     
Lake_Washington_Level 08/30/1981 0          18.08     
Lake_Washington_Level 08/31/1981 0          18.07     
Lake_Washington_Level 09/01/1981 0          18.15     
Lake_Washington_Level 09/02/1981 0          18.12     
Lake_Washington_Level 09/03/1981 0          18.09     
Lake_Washington_Level 09/04/1981 0          18.08     
Lake_Washington_Level 09/05/1981 0          18.05     
Lake_Washington_Level 09/06/1981 0          18.05     
Lake_Washington_Level 09/07/1981 0          18.03     
Lake_Washington_Level 09/08/1981 0          18.03     
Lake_Washington_Level 09/09/1981 0          17.98     
Lake_Washington_Level 09/10/1981 0          17.92     
Lake_Washington_Level 09/11/1981 0          17.86     
Lake_Washington_Level 09/12/1981 0          17.83     
Lake_Washington_Level 09/13/1981 0          17.79     
Lake_Washington_Level 09/14/1981 0          17.75     
Lake_Washington_Level 09/15/1981 0          17.72     
Lake_Washington_Level 09/16/1981 0          17.69     
Lake_Washington_Level 09/17/1981 0          17.68     
Lake_Washington_Level 09/18/1981 0          17.68     
Lake_Washington_Level 09/19/1981 0          17.65     
Lake_Washington_Level 09/20/1981 0          17.66     
Lake_Washington_Level 09/21/1981 0          17.65     
Lake_Washington_Level 09/22/1981 0          17.68     
Lake_Washington_Level 09/23/1981 0          17.65     
Lake_Washington_Level 09/24/1981 0          17.64     
Lake_Washington_Level 09/25/1981 0          17.63     
Lake_Washington_Level 09/26/1981 0          17.66     
Lake_Washington_Level 09/27/1981 0          17.74     
Lake_Washington_Level 09/28/1981 0          17.83     
Lake_Washington_Level 09/29/1981 0          17.82     
Lake_Washington_Level 09/30/1981 0          17.79     
Lake_Washington_Level 10/01/1981 0          17.82     
Lake_Washington_Level 10/02/1981 0          17.82     
Lake_Washington_Level 10/03/1981 0          17.75     
Lake_Washington_Level 10/04/1981 0          17.74     
Lake_Washington_Level 10/05/1981 0          17.74     
Lake_Washington_Level 10/06/1981 0          17.9      
Lake_Washington_Level 10/07/1981 0          17.67     
Lake_Washington_Level 10/08/1981 0          17.66     
Lake_Washington_Level 10/09/1981 0          17.71     
Lake_Washington_Level 10/10/1981 0          17.64     
Lake_Washington_Level 10/11/1981 0          17.58     
Lake_Washington_Level 10/12/1981 0          17.6      
Lake_Washington_Level 10/13/1981 0          17.6      
Lake_Washington_Level 10/14/1981 0          17.56     
Lake_Washington_Level 10/15/1981 0          17.62     
Lake_Washington_Level 10/16/1981 0          17.53     
Lake_Washington_Level 10/17/1981 0          17.48     
Lake_Washington_Level 10/18/1981 0          17.49     
Lake_Washington_Level 10/19/1981 0          17.5      
Lake_Washington_Level 10/20/1981 0          17.45     
Lake_Washington_Level 10/21/1981 0          17.48     
Lake_Washington_Level 10/22/1981 0          17.45     
Lake_Washington_Level 10/23/1981 0          17.37     
Lake_Washington_Level 10/24/1981 0          17.39     
Lake_Washington_Level 10/25/1981 0          17.37     
Lake_Washington_Level 10/26/1981 0          17.33     
Lake_Washington_Level 10/27/1981 0          17.31     
Lake_Washington_Level 10/28/1981 0          17.3      
Lake_Washington_Level 10/29/1981 0          17.29     
Lake_Washington_Level 10/30/1981 0          17.28     
Lake_Washington_Level 10/31/1981 0          17.25     
Lake_Washington_Level 11/01/1981 0          17.23     
Lake_Washington_Level 11/02/1981 0          17.21     
Lake_Washington_Level 11/03/1981 0          17.25     
Lake_Washington_Level 11/04/1981 0          17.22     
Lake_Washington_Level 11/05/1981 0          17.2      
Lake_Washington_Level 11/06/1981 0          17.19     
Lake_Washington_Level 11/07/1981 0          17.15     
Lake_Washington_Level 11/08/1981 0          17.13     
Lake_Washington_Level 11/09/1981 0          17.13     
Lake_Washington_Level 11/10/1981 0          17.12     
Lake_Washington_Level 11/11/1981 0          17.11     
Lake_Washington_Level 11/12/1981 0          17.06     
Lake_Washington_Level 11/13/1981 0          17.06     
Lake_Washington_Level 11/14/1981 0          17.05     
Lake_Washington_Level 11/15/1981 0          17.01     
Lake_Washington_Level 11/16/1981 0          16.98     
Lake_Washington_Level 11/17/1981 0          16.96     
Lake_Washington_Level 11/18/1981 0          16.99     
Lake_Washington_Level 11/19/1981 0          16.95     
Lake_Washington_Level 11/20/1981 0          16.88     
Lake_Washington_Level 11/21/1981 0          16.92     
Lake_Washington_Level 11/22/1981 0          16.88     
Lake_Washington_Level 11/23/1981 0          16.91     
Lake_Washington_Level 11/24/1981 0          16.88     
Lake_Washington_Level 11/25/1981 0          16.84     
Lake_Washington_Level 11/26/1981 0          16.84     
Lake_Washington_Level 11/27/1981 0          16.83     
Lake_Washington_Level 11/28/1981 0          16.81     
Lake_Washington_Level 11/29/1981 0          16.8      
Lake_Washington_Level 11/30/1981 0          16.77     
Lake_Washington_Level 12/01/1981 0          16.76     
Lake_Washington_Level 12/02/1981 0          16.76     
Lake_Washington_Level 12/03/1981 0          16.76     
Lake_Washington_Level 12/04/1981 0          16.75     
Lake_Washington_Level 12/05/1981 0          16.75     
Lake_Washington_Level 12/06/1981 0          16.75     
Lake_Washington_Level 12/07/1981 0          16.75     
Lake_Washington_Level 12/08/1981 0          16.75     
Lake_Washington_Level 12/09/1981 0          16.75     
Lake_Washington_Level 12/10/1981 0          16.75     
Lake_Washington_Level 12/11/1981 0          16.76     
Lake_Washington_Level 12/12/1981 0          16.75     
Lake_Washington_Level 12/13/1981 0          16.75     
Lake_Washington_Level 12/14/1981 0          16.75     
Lake_Washington_Level 12/15/1981 0          16.75     
Lake_Washington_Level 12/16/1981 0          16.76     
Lake_Washington_Level 12/17/1981 0          16.76     
Lake_Washington_Level 12/18/1981 0          16.75     
Lake_Washington_Level 12/19/1981 0          16.79     
Lake_Washington_Level 12/20/1981 0          16.78     
Lake_Washington_Level 12/21/1981 0          16.78     
Lake_Washington_Level 12/22/1981 0          16.76     
Lake_Washington_Level 12/23/1981 0          16.75     
Lake_Washington_Level 12/24/1981 0          16.75     
Lake_Washington_Level 12/25/1981 0          16.75     
Lake_Washington_Level 12/26/1981 0          16.75     
Lake_Washington_Level 12/27/1981 0          16.75     
Lake_Washington_Level 12/28/1981 0          16.75     
Lake_Washington_Level 12/29/1981 0          16.76     
Lake_Washington_Level 12/30/1981 0          16.75     
Lake_Washington_Level 12/31/1981 0          16.77     
Lake_Washington_Level 01/01/1982 0          16.75     
Lake_Washington_Level 01/02/1982 0          16.76     
Lake_Washington_Level 01/03/1982 0          16.76     
Lake_Washington_Level 01/04/1982 0          16.77     
Lake_Washington_Level 01/05/1982 0          16.77     
Lake_Washington_Level 01/06/1982 0          16.77     
Lake_Washington_Level 01/07/1982 0          16.76     
Lake_Washington_Level 01/08/1982 0          16.76     
Lake_Washington_Level 01/09/1982 0          16.76     
Lake_Washington_Level 01/10/1982 0          16.75     
Lake_Washington_Level 01/11/1982 0          16.75     
Lake_Washington_Level 01/12/1982 0          16.76     
Lake_Washington_Level 01/13/1982 0          16.76     
Lake_Washington_Level 01/14/1982 0          16.75     
Lake_Washington_Level 01/15/1982 0          16.76     
Lake_Washington_Level 01/16/1982 0          16.78     
Lake_Washington_Level 01/17/1982 0          16.76     
Lake_Washington_Level 01/18/1982 0          16.75     
Lake_Washington_Level 01/19/1982 0          16.81     
Lake_Washington_Level 01/20/1982 0          16.75     
Lake_Washington_Level 01/21/1982 0          16.77     
Lake_Washington_Level 01/22/1982 0          16.77     
Lake_Washington_Level 01/23/1982 0          16.76     
Lake_Washington_Level 01/24/1982 0          16.75     
Lake_Washington_Level 01/25/1982 0          16.75     
Lake_Washington_Level 01/26/1982 0          16.78     
Lake_Washington_Level 01/27/1982 0          16.76     
Lake_Washington_Level 01/28/1982 0          16.76     
Lake_Washington_Level 01/29/1982 0          16.77     
Lake_Washington_Level 01/30/1982 0          16.76     
Lake_Washington_Level 01/31/1982 0          16.76     
Lake_Washington_Level 02/01/1982 0          16.76     
Lake_Washington_Level 02/02/1982 0          16.78     
Lake_Washington_Level 02/03/1982 0          16.77     
Lake_Washington_Level 02/04/1982 0          16.76     
Lake_Washington_Level 02/05/1982 0          16.76     
Lake_Washington_Level 02/06/1982 0          16.76     
Lake_Washington_Level 02/07/1982 0          16.76     
Lake_Washington_Level 02/08/1982 0          16.76     
Lake_Washington_Level 02/09/1982 0          16.77     
Lake_Washington_Level 02/10/1982 0          16.77     
Lake_Washington_Level 02/11/1982 0          16.77     
Lake_Washington_Level 02/12/1982 0          16.78     
Lake_Washington_Level 02/13/1982 0          16.78     
Lake_Washington_Level 02/14/1982 0          16.79     
Lake_Washington_Level 02/15/1982 0          16.8      
Lake_Washington_Level 02/16/1982 0          16.81     
Lake_Washington_Level 02/17/1982 0          16.84     
Lake_Washington_Level 02/18/1982 0          16.82     
Lake_Washington_Level 02/19/1982 0          16.87     
Lake_Washington_Level 02/20/1982 0          16.92     
Lake_Washington_Level 02/21/1982 0          16.93     
Lake_Washington_Level 02/22/1982 0          16.93     
Lake_Washington_Level 02/23/1982 0          16.95     
Lake_Washington_Level 02/24/1982 0          17        
Lake_Washington_Level 02/25/1982 0          16.99     
Lake_Washington_Level 02/26/1982 0          17.02     
Lake_Washington_Level 02/27/1982 0          17.04     
Lake_Washington_Level 02/28/1982 0          17.11     
Lake_Washington_Level 03/01/1982 0          17.11     
Lake_Washington_Level 03/02/1982 0          17.18     
Lake_Washington_Level 03/03/1982 0          17.18     
Lake_Washington_Level 03/04/1982 0          17.21     
Lake_Washington_Level 03/05/1982 0          17.2      
Lake_Washington_Level 03/06/1982 0          17.25     
Lake_Washington_Level 03/07/1982 0          17.27     
Lake_Washington_Level 03/08/1982 0          17.29     
Lake_Washington_Level 03/09/1982 0          17.32     
Lake_Washington_Level 03/10/1982 0          17.4      
Lake_Washington_Level 03/11/1982 0          17.4      
Lake_Washington_Level 03/12/1982 0          17.4      
Lake_Washington_Level 03/13/1982 0          17.43     
Lake_Washington_Level 03/14/1982 0          17.43     
Lake_Washington_Level 03/15/1982 0          17.49     
Lake_Washington_Level 03/16/1982 0          17.5      
Lake_Washington_Level 03/17/1982 0          17.5      
Lake_Washington_Level 03/18/1982 0          17.53     
Lake_Washington_Level 03/19/1982 0          17.59     
Lake_Washington_Level 03/20/1982 0          17.62     
Lake_Washington_Level 03/21/1982 0          17.6      
Lake_Washington_Level 03/22/1982 0          17.59     
Lake_Washington_Level 03/23/1982 0          17.67     
Lake_Washington_Level 03/24/1982 0          17.7      
Lake_Washington_Level 03/25/1982 0          17.71     
Lake_Washington_Level 03/26/1982 0          17.73     
Lake_Washington_Level 03/27/1982 0          17.75     
Lake_Washington_Level 03/28/1982 0          17.76     
Lake_Washington_Level 03/29/1982 0          17.8      
Lake_Washington_Level 03/30/1982 0          17.8      
Lake_Washington_Level 03/31/1982 0          17.81     
Lake_Washington_Level 04/01/1982 0          17.81     
Lake_Washington_Level 04/02/1982 0          17.9      
Lake_Washington_Level 04/03/1982 0          17.95     
Lake_Washington_Level 04/04/1982 0          17.9      
Lake_Washington_Level 04/05/1982 0          17.95     
Lake_Washington_Level 04/06/1982 0          17.98     
Lake_Washington_Level 04/07/1982 0          17.99     
Lake_Washington_Level 04/08/1982 0          18.02     
Lake_Washington_Level 04/09/1982 0          18.09     
Lake_Washington_Level 04/10/1982 0          18.12     
Lake_Washington_Level 04/11/1982 0          18.18     
Lake_Washington_Level 04/12/1982 0          18.17     
Lake_Washington_Level 04/13/1982 0          18.17     
Lake_Washington_Level 04/14/1982 0          18.19     
Lake_Washington_Level 04/15/1982 0          18.16     
Lake_Washington_Level 04/16/1982 0          18.24     
Lake_Washington_Level 04/17/1982 0          18.33     
Lake_Washington_Level 04/18/1982 0          18.33     
Lake_Washington_Level 04/19/1982 0          18.31     
Lake_Washington_Level 04/20/1982 0          18.29     
Lake_Washington_Level 04/21/1982 0          18.35     
Lake_Washington_Level 04/22/1982 0          18.4      
Lake_Washington_Level 04/23/1982 0          18.44     
Lake_Washington_Level 04/24/1982 0          18.43     
Lake_Washington_Level 04/25/1982 0          18.48     
Lake_Washington_Level 04/26/1982 0          18.54     
Lake_Washington_Level 04/27/1982 0          18.54     
Lake_Washington_Level 04/28/1982 0          18.58     
Lake_Washington_Level 04/29/1982 0          18.55     
Lake_Washington_Level 04/30/1982 0          18.58     
Lake_Washington_Level 05/01/1982 0          18.6      
Lake_Washington_Level 05/02/1982 0          18.59     
Lake_Washington_Level 05/03/1982 0          18.55     
Lake_Washington_Level 05/04/1982 0          18.58     
Lake_Washington_Level 05/05/1982 0          18.57     
Lake_Washington_Level 05/06/1982 0          18.59     
Lake_Washington_Level 05/07/1982 0          18.59     
Lake_Washington_Level 05/08/1982 0          18.55     
Lake_Washington_Level 05/09/1982 0          18.6      
Lake_Washington_Level 05/10/1982 0          18.6      
Lake_Washington_Level 05/11/1982 0          18.59     
Lake_Washington_Level 05/12/1982 0          18.57     
Lake_Washington_Level 05/13/1982 0          18.6      
Lake_Washington_Level 05/14/1982 0          18.59     
Lake_Washington_Level 05/15/1982 0          18.49     
Lake_Washington_Level 05/16/1982 0          18.55     
Lake_Washington_Level 05/17/1982 0          18.55     
Lake_Washington_Level 05/18/1982 0          18.4      
Lake_Washington_Level 05/19/1982 0          18.4      
Lake_Washington_Level 05/20/1982 0          18.4      
Lake_Washington_Level 05/21/1982 0          18.4      
Lake_Washington_Level 05/22/1982 0          18.45     
Lake_Washington_Level 05/23/1982 0          18.47     
Lake_Washington_Level 05/24/1982 0          18.45     
Lake_Washington_Level 05/25/1982 0          18.5      
Lake_Washington_Level 05/26/1982 0          18.48     
Lake_Washington_Level 05/27/1982 0          18.54     
Lake_Washington_Level 05/28/1982 0          18.55     
Lake_Washington_Level 05/29/1982 0          18.6      
Lake_Washington_Level 05/30/1982 0          18.56     
Lake_Washington_Level 05/31/1982 0          18.51     
Lake_Washington_Level 06/01/1982 0          18.6      
Lake_Washington_Level 06/02/1982 0          18.56     
Lake_Washington_Level 06/03/1982 0          18.6      
Lake_Washington_Level 06/04/1982 0          18.59     
Lake_Washington_Level 06/05/1982 0          18.52     
Lake_Washington_Level 06/06/1982 0          18.5      
Lake_Washington_Level 06/07/1982 0          18.45     
Lake_Washington_Level 06/08/1982 0          18.39     
Lake_Washington_Level 06/09/1982 0          18.41     
Lake_Washington_Level 06/10/1982 0          18.35     
Lake_Washington_Level 06/11/1982 0          18.35     
Lake_Washington_Level 06/12/1982 0          18.31     
Lake_Washington_Level 06/13/1982 0          18.29     
Lake_Washington_Level 06/14/1982 0          18.29     
Lake_Washington_Level 06/15/1982 0          18.36     
Lake_Washington_Level 06/16/1982 0          18.34     
Lake_Washington_Level 06/17/1982 0          18.31     
Lake_Washington_Level 06/18/1982 0          18.28     
Lake_Washington_Level 06/19/1982 0          18.24     
Lake_Washington_Level 06/20/1982 0          18.23     
Lake_Washington_Level 06/21/1982 0          18.24     
Lake_Washington_Level 06/22/1982 0          18.28     
Lake_Washington_Level 06/23/1982 0          18.3      
Lake_Washington_Level 06/24/1982 0          18.28     
Lake_Washington_Level 06/25/1982 0          18.26     
Lake_Washington_Level 06/26/1982 0          18.31     
Lake_Washington_Level 06/27/1982 0          18.43     
Lake_Washington_Level 06/28/1982 0          18.46     
Lake_Washington_Level 06/29/1982 0          18.45     
Lake_Washington_Level 06/30/1982 0          18.5      
Lake_Washington_Level 07/01/1982 0          18.6      
Lake_Washington_Level 07/02/1982 0          18.6      
Lake_Washington_Level 07/03/1982 0          18.58     
Lake_Washington_Level 07/04/1982 0          18.56     
Lake_Washington_Level 07/05/1982 0          18.57     
Lake_Washington_Level 07/06/1982 0          18.56     
Lake_Washington_Level 07/07/1982 0          18.56     
Lake_Washington_Level 07/08/1982 0          18.61     
Lake_Washington_Level 07/09/1982 0          18.57     
Lake_Washington_Level 07/10/1982 0          18.5      
Lake_Washington_Level 07/11/1982 0          18.47     
Lake_Washington_Level 07/12/1982 0          18.43     
Lake_Washington_Level 07/13/1982 0          18.42     
Lake_Washington_Level 07/14/1982 0          18.4      
Lake_Washington_Level 07/15/1982 0          18.41     
Lake_Washington_Level 07/16/1982 0          18.3      
Lake_Washington_Level 07/17/1982 0          18.27     
Lake_Washington_Level 07/18/1982 0          18.27     
Lake_Washington_Level 07/19/1982 0          18.28     
Lake_Washington_Level 07/20/1982 0          18.25     
Lake_Washington_Level 07/21/1982 0          18.24     
Lake_Washington_Level 07/22/1982 0          18.2      
Lake_Washington_Level 07/23/1982 0          18.16     
Lake_Washington_Level 07/24/1982 0          18.12     
Lake_Washington_Level 07/25/1982 0          18.09     
Lake_Washington_Level 07/26/1982 0          18.04     
Lake_Washington_Level 07/27/1982 0          18.02     
Lake_Washington_Level 07/28/1982 0          18.01     
Lake_Washington_Level 07/29/1982 0          17.96     
Lake_Washington_Level 07/30/1982 0          17.97     
Lake_Washington_Level 07/31/1982 0          17.85     
Lake_Washington_Level 08/01/1982 0          17.8      
Lake_Washington_Level 08/02/1982 0          17.93     
Lake_Washington_Level 08/03/1982 0          17.88     
Lake_Washington_Level 08/04/1982 0          17.82     
Lake_Washington_Level 08/05/1982 0          17.8      
Lake_Washington_Level 08/06/1982 0          17.79     
Lake_Washington_Level 08/07/1982 0          17.75     
Lake_Washington_Level 08/08/1982 0          17.65     
Lake_Washington_Level 08/09/1982 0          17.65     
Lake_Washington_Level 08/10/1982 0          17.69     
Lake_Washington_Level 08/11/1982 0          17.62     
Lake_Washington_Level 08/12/1982 0          17.53     
Lake_Washington_Level 08/13/1982 0          17.58     
Lake_Washington_Level 08/14/1982 0          17.54     
Lake_Washington_Level 08/15/1982 0          17.59     
Lake_Washington_Level 08/16/1982 0          17.55     
Lake_Washington_Level 08/17/1982 0          17.55     
Lake_Washington_Level 08/18/1982 0          17.47     
Lake_Washington_Level 08/19/1982 0          17.45     
Lake_Washington_Level 08/20/1982 0          17.4      
Lake_Washington_Level 08/21/1982 0          17.4      
Lake_Washington_Level 08/22/1982 0          17.38     
Lake_Washington_Level 08/23/1982 0          17.32     
Lake_Washington_Level 08/24/1982 0          17.28     
Lake_Washington_Level 08/25/1982 0          17.32     
Lake_Washington_Level 08/26/1982 0          17.25     
Lake_Washington_Level 08/27/1982 0          17.24     
Lake_Washington_Level 08/28/1982 0          17.15     
Lake_Washington_Level 08/29/1982 0          17.2      
Lake_Washington_Level 08/30/1982 0          17.16     
Lake_Washington_Level 08/31/1982 0          17.13     
Lake_Washington_Level 09/01/1982 0          17.16     
Lake_Washington_Level 09/02/1982 0          17.13     
Lake_Washington_Level 09/03/1982 0          17.09     
Lake_Washington_Level 09/04/1982 0          17.08     
Lake_Washington_Level 09/05/1982 0          17.1      
Lake_Washington_Level 09/06/1982 0          17.1      
Lake_Washington_Level 09/07/1982 0          17.03     
Lake_Washington_Level 09/08/1982 0          17        
Lake_Washington_Level 09/09/1982 0          17        
Lake_Washington_Level 09/10/1982 0          16.99     
Lake_Washington_Level 09/11/1982 0          17.03     
Lake_Washington_Level 09/12/1982 0          17.03     
Lake_Washington_Level 09/13/1982 0          17.02     
Lake_Washington_Level 09/14/1982 0          17.04     
Lake_Washington_Level 09/15/1982 0          17.01     
Lake_Washington_Level 09/16/1982 0          17.05     
Lake_Washington_Level 09/17/1982 0          17        
Lake_Washington_Level 09/18/1982 0          17        
Lake_Washington_Level 09/19/1982 0          16.99     
Lake_Washington_Level 09/20/1982 0          17.01     
Lake_Washington_Level 09/21/1982 0          17.02     
Lake_Washington_Level 09/22/1982 0          16.98     
Lake_Washington_Level 09/23/1982 0          17.03     
Lake_Washington_Level 09/24/1982 0          17.03     
Lake_Washington_Level 09/25/1982 0          17.07     
Lake_Washington_Level 09/26/1982 0          17.03     
Lake_Washington_Level 09/27/1982 0          17.02     
Lake_Washington_Level 09/28/1982 0          17.05     
Lake_Washington_Level 09/29/1982 0          17.05     
Lake_Washington_Level 09/30/1982 0          17.07     
Lake_Washington_Level 10/01/1982 0          17.11     
Lake_Washington_Level 10/02/1982 0          17.08     
Lake_Washington_Level 10/03/1982 0          17.14     
Lake_Washington_Level 10/04/1982 0          17.14     
Lake_Washington_Level 10/05/1982 0          17.13     
Lake_Washington_Level 10/06/1982 0          17.17     
Lake_Washington_Level 10/07/1982 0          17.17     
Lake_Washington_Level 10/08/1982 0          17.25     
Lake_Washington_Level 10/09/1982 0          17.26     
Lake_Washington_Level 10/10/1982 0          17.26     
Lake_Washington_Level 10/11/1982 0          17.35     
Lake_Washington_Level 10/12/1982 0          17.3      
Lake_Washington_Level 10/13/1982 0          17.3      
Lake_Washington_Level 10/14/1982 0          17.31     
Lake_Washington_Level 10/15/1982 0          17.33     
Lake_Washington_Level 10/16/1982 0          17.38     
Lake_Washington_Level 10/17/1982 0          17.4      
Lake_Washington_Level 10/18/1982 0          17.47     
Lake_Washington_Level 10/19/1982 0          17.45     
Lake_Washington_Level 10/20/1982 0          17.45     
Lake_Washington_Level 10/21/1982 0          17.43     
Lake_Washington_Level 10/22/1982 0          17.41     
Lake_Washington_Level 10/23/1982 0          17.41     
Lake_Washington_Level 10/24/1982 0          17.3      
Lake_Washington_Level 10/25/1982 0          17.32     
Lake_Washington_Level 10/26/1982 0          17.37     
Lake_Washington_Level 10/27/1982 0          17.3      
Lake_Washington_Level 10/28/1982 0          17.28     
Lake_Washington_Level 10/29/1982 0          17.25     
Lake_Washington_Level 10/30/1982 0          17.24     
Lake_Washington_Level 10/31/1982 0          17.15     
Lake_Washington_Level 11/01/1982 0          17.2      
Lake_Washington_Level 11/02/1982 0          17.2      
Lake_Washington_Level 11/03/1982 0          17.2      
Lake_Washington_Level 11/04/1982 0          17.18     
Lake_Washington_Level 11/05/1982 0          17.15     
Lake_Washington_Level 11/06/1982 0          17.1      
Lake_Washington_Level 11/07/1982 0          17.08     
Lake_Washington_Level 11/08/1982 0          17.07     
Lake_Washington_Level 11/09/1982 0          17.07     
Lake_Washington_Level 11/10/1982 0          17.05     
Lake_Washington_Level 11/11/1982 0          17.03     
Lake_Washington_Level 11/12/1982 0          16.97     
Lake_Washington_Level 11/13/1982 0          16.93     
Lake_Washington_Level 11/14/1982 0          16.92     
Lake_Washington_Level 11/15/1982 0          16.95     
Lake_Washington_Level 11/16/1982 0          16.95     
Lake_Washington_Level 11/17/1982 0          16.95     
Lake_Washington_Level 11/18/1982 0          16.9      
Lake_Washington_Level 11/19/1982 0          16.9      
Lake_Washington_Level 11/20/1982 0          16.87     
Lake_Washington_Level 11/21/1982 0          16.87     
Lake_Washington_Level 11/22/1982 0          16.88     
Lake_Washington_Level 11/23/1982 0          16.9      
Lake_Washington_Level 11/24/1982 0          16.87     
Lake_Washington_Level 11/25/1982 0          16.82     
Lake_Washington_Level 11/26/1982 0          16.81     
Lake_Washington_Level 11/27/1982 0          16.81     
Lake_Washington_Level 11/28/1982 0          16.81     
Lake_Washington_Level 11/29/1982 0          16.81     
Lake_Washington_Level 11/30/1982 0          16.81     
Lake_Washington_Level 12/01/1982 0          16.77     
Lake_Washington_Level 12/02/1982 0          16.77     
Lake_Washington_Level 12/03/1982 0          16.77     
Lake_Washington_Level 12/04/1982 0          16.76     
Lake_Washington_Level 12/05/1982 0          16.79     
Lake_Washington_Level 12/06/1982 0          16.8      
Lake_Washington_Level 12/07/1982 0          16.77     
Lake_Washington_Level 12/08/1982 0          16.77     
Lake_Washington_Level 12/09/1982 0          16.77     
Lake_Washington_Level 12/10/1982 0          16.75     
Lake_Washington_Level 12/11/1982 0          16.8      
Lake_Washington_Level 12/12/1982 0          16.8      
Lake_Washington_Level 12/13/1982 0          16.79     
Lake_Washington_Level 12/14/1982 0          16.77     
Lake_Washington_Level 12/15/1982 0          16.77     
Lake_Washington_Level 12/16/1982 0          16.79     
Lake_Washington_Level 12/17/1982 0          16.77     
Lake_Washington_Level 12/18/1982 0          16.78     
Lake_Washington_Level 12/19/1982 0          16.76     
Lake_Washington_Level 12/20/1982 0          16.83     
Lake_Washington_Level 12/21/1982 0          16.75     
Lake_Washington_Level 12/22/1982 0          16.78     
Lake_Washington_Level 12/23/1982 0          16.76     
Lake_Washington_Level 12/24/1982 0          16.78     
Lake_Washington_Level 12/25/1982 0          16.76     
Lake_Washington_Level 12/26/1982 0          16.78     
Lake_Washington_Level 12/27/1982 0          16.78     
Lake_Washington_Level 12/28/1982 0          16.8      
Lake_Washington_Level 12/29/1982 0          16.79     
Lake_Washington_Level 12/30/1982 0          16.77     
Lake_Washington_Level 12/31/1982 0          16.79     
Lake_Washington_Level 01/01/1983 0          16.77     
Lake_Washington_Level 01/02/1983 0          16.75     
Lake_Washington_Level 01/03/1983 0          16.76     
Lake_Washington_Level 01/04/1983 0          16.82     
Lake_Washington_Level 01/05/1983 0          16.84     
Lake_Washington_Level 01/06/1983 0          16.79     
Lake_Washington_Level 01/07/1983 0          16.77     
Lake_Washington_Level 01/08/1983 0          16.77     
Lake_Washington_Level 01/09/1983 0          16.76     
Lake_Washington_Level 01/10/1983 0          16.78     
Lake_Washington_Level 01/11/1983 0          16.78     
Lake_Washington_Level 01/12/1983 0          16.78     
Lake_Washington_Level 01/13/1983 0          16.77     
Lake_Washington_Level 01/14/1983 0          16.77     
Lake_Washington_Level 01/15/1983 0          16.78     
Lake_Washington_Level 01/16/1983 0          16.75     
Lake_Washington_Level 01/17/1983 0          16.76     
Lake_Washington_Level 01/18/1983 0          16.78     
Lake_Washington_Level 01/19/1983 0          16.79     
Lake_Washington_Level 01/20/1983 0          16.76     
Lake_Washington_Level 01/21/1983 0          16.77     
Lake_Washington_Level 01/22/1983 0          16.77     
Lake_Washington_Level 01/23/1983 0          16.77     
Lake_Washington_Level 01/24/1983 0          16.78     
Lake_Washington_Level 01/25/1983 0          16.77     
Lake_Washington_Level 01/26/1983 0          16.75     
Lake_Washington_Level 01/27/1983 0          16.77     
Lake_Washington_Level 01/28/1983 0          16.77     
Lake_Washington_Level 01/29/1983 0          16.78     
Lake_Washington_Level 01/30/1983 0          16.78     
Lake_Washington_Level 01/31/1983 0          16.78     
Lake_Washington_Level 02/01/1983 0          16.79     
Lake_Washington_Level 02/02/1983 0          16.77     
Lake_Washington_Level 02/03/1983 0          16.77     
Lake_Washington_Level 02/04/1983 0          16.79     
Lake_Washington_Level 02/05/1983 0          16.75     
Lake_Washington_Level 02/06/1983 0          16.8      
Lake_Washington_Level 02/07/1983 0          16.78     
Lake_Washington_Level 02/08/1983 0          16.76     
Lake_Washington_Level 02/09/1983 0          16.76     
Lake_Washington_Level 02/10/1983 0          16.76     
Lake_Washington_Level 02/11/1983 0          16.76     
Lake_Washington_Level 02/12/1983 0          16.77     
Lake_Washington_Level 02/13/1983 0          16.76     
Lake_Washington_Level 02/14/1983 0          16.78     
Lake_Washington_Level 02/15/1983 0          16.78     
Lake_Washington_Level 02/16/1983 0          16.81     
Lake_Washington_Level 02/17/1983 0          16.82     
Lake_Washington_Level 02/18/1983 0          16.82     
Lake_Washington_Level 02/19/1983 0          16.8      
Lake_Washington_Level 02/20/1983 0          16.88     
Lake_Washington_Level 02/21/1983 0          16.88     
Lake_Washington_Level 02/22/1983 0          16.93     
Lake_Washington_Level 02/23/1983 0          16.97     
Lake_Washington_Level 02/24/1983 0          16.99     
Lake_Washington_Level 02/25/1983 0          16.99     
Lake_Washington_Level 02/26/1983 0          17.01     
Lake_Washington_Level 02/27/1983 0          17.02     
Lake_Washington_Level 02/28/1983 0          17.11     
Lake_Washington_Level 03/01/1983 0          17.11     
Lake_Washington_Level 03/02/1983 0          17.18     
Lake_Washington_Level 03/03/1983 0          17.22     
Lake_Washington_Level 03/04/1983 0          17.19     
Lake_Washington_Level 03/05/1983 0          17.17     
Lake_Washington_Level 03/06/1983 0          17.23     
Lake_Washington_Level 03/07/1983 0          17.27     
Lake_Washington_Level 03/08/1983 0          17.31     
Lake_Washington_Level 03/09/1983 0          17.32     
Lake_Washington_Level 03/10/1983 0          17.37     
Lake_Washington_Level 03/11/1983 0          17.4      
Lake_Washington_Level 03/12/1983 0          17.38     
Lake_Washington_Level 03/13/1983 0          17.4      
Lake_Washington_Level 03/14/1983 0          17.46     
Lake_Washington_Level 03/15/1983 0          17.53     
Lake_Washington_Level 03/16/1983 0          17.51     
Lake_Washington_Level 03/17/1983 0          17.51     
Lake_Washington_Level 03/18/1983 0          17.51     
Lake_Washington_Level 03/19/1983 0          17.56     
Lake_Washington_Level 03/20/1983 0          17.59     
Lake_Washington_Level 03/21/1983 0          17.58     
Lake_Washington_Level 03/22/1983 0          17.61     
Lake_Washington_Level 03/23/1983 0          17.63     
Lake_Washington_Level 03/24/1983 0          17.68     
Lake_Washington_Level 03/25/1983 0          17.73     
Lake_Washington_Level 03/26/1983 0          17.77     
Lake_Washington_Level 03/27/1983 0          17.75     
Lake_Washington_Level 03/28/1983 0          17.71     
Lake_Washington_Level 03/29/1983 0          17.77     
Lake_Washington_Level 03/30/1983 0          17.8      
Lake_Washington_Level 03/31/1983 0          17.81     
Lake_Washington_Level 04/01/1983 0          17.85     
Lake_Washington_Level 04/02/1983 0          17.9      
Lake_Washington_Level 04/03/1983 0          17.89     
Lake_Washington_Level 04/04/1983 0          17.99     
Lake_Washington_Level 04/05/1983 0          17.97     
Lake_Washington_Level 04/06/1983 0          18        
Lake_Washington_Level 04/07/1983 0          18.03     
Lake_Washington_Level 04/08/1983 0          18.06     
Lake_Washington_Level 04/09/1983 0          18.1      
Lake_Washington_Level 04/10/1983 0          18.07     
Lake_Washington_Level 04/11/1983 0          18.07     
Lake_Washington_Level 04/12/1983 0          18.16     
Lake_Washington_Level 04/13/1983 0          18.17     
Lake_Washington_Level 04/14/1983 0          18.23     
Lake_Washington_Level 04/15/1983 0          18.24     
Lake_Washington_Level 04/16/1983 0          18.25     
Lake_Washington_Level 04/17/1983 0          18.29     
Lake_Washington_Level 04/18/1983 0          18.33     
Lake_Washington_Level 04/19/1983 0          18.35     
Lake_Washington_Level 04/20/1983 0          18.31     
Lake_Washington_Level 04/21/1983 0          18.4      
Lake_Washington_Level 04/22/1983 0          18.43     
Lake_Washington_Level 04/23/1983 0          18.41     
Lake_Washington_Level 04/24/1983 0          18.47     
Lake_Washington_Level 04/25/1983 0          18.46     
Lake_Washington_Level 04/26/1983 0          18.52     
Lake_Washington_Level 04/27/1983 0          18.55     
Lake_Washington_Level 04/28/1983 0          18.6      
Lake_Washington_Level 04/29/1983 0          18.6      
Lake_Washington_Level 04/30/1983 0          18.6      
Lake_Washington_Level 05/01/1983 0          18.61     
Lake_Washington_Level 05/02/1983 0          18.6      
Lake_Washington_Level 05/03/1983 0          18.6      
Lake_Washington_Level 05/04/1983 0          18.6      
Lake_Washington_Level 05/05/1983 0          18.6      
Lake_Washington_Level 05/06/1983 0          18.6      
Lake_Washington_Level 05/07/1983 0          18.6      
Lake_Washington_Level 05/08/1983 0          18.6      
Lake_Washington_Level 05/09/1983 0          18.6      
Lake_Washington_Level 05/10/1983 0          18.56     
Lake_Washington_Level 05/11/1983 0          18.6      
Lake_Washington_Level 05/12/1983 0          18.59     
Lake_Washington_Level 05/13/1983 0          18.57     
Lake_Washington_Level 05/14/1983 0          18.55     
Lake_Washington_Level 05/15/1983 0          18.6      
Lake_Washington_Level 05/16/1983 0          18.6      
Lake_Washington_Level 05/17/1983 0          18.6      
Lake_Washington_Level 05/18/1983 0          18.59     
Lake_Washington_Level 05/19/1983 0          18.57     
Lake_Washington_Level 05/20/1983 0          18.53     
Lake_Washington_Level 05/21/1983 0          18.5      
Lake_Washington_Level 05/22/1983 0          18.53     
Lake_Washington_Level 05/23/1983 0          18.57     
Lake_Washington_Level 05/24/1983 0          18.55     
Lake_Washington_Level 05/25/1983 0          18.57     
Lake_Washington_Level 05/26/1983 0          18.55     
Lake_Washington_Level 05/27/1983 0          18.55     
Lake_Washington_Level 05/28/1983 0          18.55     
Lake_Washington_Level 05/29/1983 0          18.52     
Lake_Washington_Level 05/30/1983 0          18.54     
Lake_Washington_Level 05/31/1983 0          18.54     
Lake_Washington_Level 06/01/1983 0          18.56     
Lake_Washington_Level 06/02/1983 0          18.56     
Lake_Washington_Level 06/03/1983 0          18.57     
Lake_Washington_Level 06/04/1983 0          18.55     
Lake_Washington_Level 06/05/1983 0          18.55     
Lake_Washington_Level 06/06/1983 0          18.54     
Lake_Washington_Level 06/07/1983 0          18.55     
Lake_Washington_Level 06/08/1983 0          18.56     
Lake_Washington_Level 06/09/1983 0          18.58     
Lake_Washington_Level 06/10/1983 0          18.65     
Lake_Washington_Level 06/11/1983 0          18.62     
Lake_Washington_Level 06/12/1983 0          18.62     
Lake_Washington_Level 06/13/1983 0          18.65     
Lake_Washington_Level 06/14/1983 0          18.64     
Lake_Washington_Level 06/15/1983 0          18.68     
Lake_Washington_Level 06/16/1983 0          18.66     
Lake_Washington_Level 06/17/1983 0          18.65     
Lake_Washington_Level 06/18/1983 0          18.61     
Lake_Washington_Level 06/19/1983 0          18.62     
Lake_Washington_Level 06/20/1983 0          18.65     
Lake_Washington_Level 06/21/1983 0          18.65     
Lake_Washington_Level 06/22/1983 0          18.63     
Lake_Washington_Level 06/23/1983 0          18.64     
Lake_Washington_Level 06/24/1983 0          18.65     
Lake_Washington_Level 06/25/1983 0          18.62     
Lake_Washington_Level 06/26/1983 0          18.6      
Lake_Washington_Level 06/27/1983 0          18.59     
Lake_Washington_Level 06/28/1983 0          18.6      
Lake_Washington_Level 06/29/1983 0          18.6      
Lake_Washington_Level 06/30/1983 0          18.58     
Lake_Washington_Level 07/01/1983 0          18.6      
Lake_Washington_Level 07/02/1983 0          18.6      
Lake_Washington_Level 07/03/1983 0          18.59     
Lake_Washington_Level 07/04/1983 0          18.6      
Lake_Washington_Level 07/05/1983 0          18.62     
Lake_Washington_Level 07/06/1983 0          18.55     
Lake_Washington_Level 07/07/1983 0          18.53     
Lake_Washington_Level 07/08/1983 0          18.52     
Lake_Washington_Level 07/09/1983 0          18.55     
Lake_Washington_Level 07/10/1983 0          18.5      
Lake_Washington_Level 07/11/1983 0          18.51     
Lake_Washington_Level 07/12/1983 0          18.52     
Lake_Washington_Level 07/13/1983 0          18.49     
Lake_Washington_Level 07/14/1983 0          18.57     
Lake_Washington_Level 07/15/1983 0          18.6      
Lake_Washington_Level 07/16/1983 0          18.6      
Lake_Washington_Level 07/17/1983 0          18.6      
Lake_Washington_Level 07/18/1983 0          18.58     
Lake_Washington_Level 07/19/1983 0          18.62     
Lake_Washington_Level 07/20/1983 0          18.59     
Lake_Washington_Level 07/21/1983 0          18.55     
Lake_Washington_Level 07/22/1983 0          18.58     
Lake_Washington_Level 07/23/1983 0          18.57     
Lake_Washington_Level 07/24/1983 0          18.59     
Lake_Washington_Level 07/25/1983 0          18.6      
Lake_Washington_Level 07/26/1983 0          18.6      
Lake_Washington_Level 07/27/1983 0          18.64     
Lake_Washington_Level 07/28/1983 0          18.64     
Lake_Washington_Level 07/29/1983 0          18.63     
Lake_Washington_Level 07/30/1983 0          18.63     
Lake_Washington_Level 07/31/1983 0          18.6      
Lake_Washington_Level 08/01/1983 0          18.57     
Lake_Washington_Level 08/02/1983 0          18.58     
Lake_Washington_Level 08/03/1983 0          18.54     
Lake_Washington_Level 08/04/1983 0          18.54     
Lake_Washington_Level 08/05/1983 0          18.48     
Lake_Washington_Level 08/06/1983 0          18.57     
Lake_Washington_Level 08/07/1983 0          18.55     
Lake_Washington_Level 08/08/1983 0          18.45     
Lake_Washington_Level 08/09/1983 0          18.44     
Lake_Washington_Level 08/10/1983 0          18.41     
Lake_Washington_Level 08/11/1983 0          18.34     
Lake_Washington_Level 08/12/1983 0          18.42     
Lake_Washington_Level 08/13/1983 0          18.41     
Lake_Washington_Level 08/14/1983 0          18.44     
Lake_Washington_Level 08/15/1983 0          18.36     
Lake_Washington_Level 08/16/1983 0          18.39     
Lake_Washington_Level 08/17/1983 0          18.29     
Lake_Washington_Level 08/18/1983 0          18.3      
Lake_Washington_Level 08/19/1983 0          18.34     
Lake_Washington_Level 08/20/1983 0          18.25     
Lake_Washington_Level 08/21/1983 0          18.23     
Lake_Washington_Level 08/22/1983 0          18.22     
Lake_Washington_Level 08/23/1983 0          18.21     
Lake_Washington_Level 08/24/1983 0          18.16     
Lake_Washington_Level 08/25/1983 0          18.16     
Lake_Washington_Level 08/26/1983 0          18.08     
Lake_Washington_Level 08/27/1983 0          18.11     
Lake_Washington_Level 08/28/1983 0          18.09     
Lake_Washington_Level 08/29/1983 0          18.16     
Lake_Washington_Level 08/30/1983 0          18.22     
Lake_Washington_Level 08/31/1983 0          18.25     
Lake_Washington_Level 09/01/1983 0          18.33     
Lake_Washington_Level 09/02/1983 0          18.4      
Lake_Washington_Level 09/03/1983 0          18.39     
Lake_Washington_Level 09/04/1983 0          18.34     
Lake_Washington_Level 09/05/1983 0          18.21     
Lake_Washington_Level 09/06/1983 0          18.1      
Lake_Washington_Level 09/07/1983 0          18.09     
Lake_Washington_Level 09/08/1983 0          18.1      
Lake_Washington_Level 09/09/1983 0          18.08     
Lake_Washington_Level 09/10/1983 0          18.07     
Lake_Washington_Level 09/11/1983 0          18.06     
Lake_Washington_Level 09/12/1983 0          18.02     
Lake_Washington_Level 09/13/1983 0          17.98     
Lake_Washington_Level 09/14/1983 0          17.99     
Lake_Washington_Level 09/15/1983 0          17.99     
Lake_Washington_Level 09/16/1983 0          17.96     
Lake_Washington_Level 09/17/1983 0          17.99     
Lake_Washington_Level 09/18/1983 0          17.98     
Lake_Washington_Level 09/19/1983 0          17.95     
Lake_Washington_Level 09/20/1983 0          17.95     
Lake_Washington_Level 09/21/1983 0          17.92     
Lake_Washington_Level 09/22/1983 0          17.95     
Lake_Washington_Level 09/23/1983 0          17.92     
Lake_Washington_Level 09/24/1983 0          17.93     
Lake_Washington_Level 09/25/1983 0          17.91     
Lake_Washington_Level 09/26/1983 0          17.92     
Lake_Washington_Level 09/27/1983 0          17.82     
Lake_Washington_Level 09/28/1983 0          17.82     
Lake_Washington_Level 09/29/1983 0          17.81     
Lake_Washington_Level 09/30/1983 0          17.74     
Lake_Washington_Level 10/01/1983 0          17.63     
Lake_Washington_Level 10/02/1983 0          17.64     
Lake_Washington_Level 10/03/1983 0          17.6      
Lake_Washington_Level 10/04/1983 0          17.56     
Lake_Washington_Level 10/05/1983 0          17.61     
Lake_Washington_Level 10/06/1983 0          17.61     
Lake_Washington_Level 10/07/1983 0          17.62     
Lake_Washington_Level 10/08/1983 0          17.63     
Lake_Washington_Level 10/09/1983 0          17.64     
Lake_Washington_Level 10/10/1983 0          17.6      
Lake_Washington_Level 10/11/1983 0          17.57     
Lake_Washington_Level 10/12/1983 0          17.62     
Lake_Washington_Level 10/13/1983 0          17.53     
Lake_Washington_Level 10/14/1983 0          17.49     
Lake_Washington_Level 10/15/1983 0          17.49     
Lake_Washington_Level 10/16/1983 0          17.49     
Lake_Washington_Level 10/17/1983 0          17.5      
Lake_Washington_Level 10/18/1983 0          17.45     
Lake_Washington_Level 10/19/1983 0          17.4      
Lake_Washington_Level 10/20/1983 0          17.41     
Lake_Washington_Level 10/21/1983 0          17.4      
Lake_Washington_Level 10/22/1983 0          17.41     
Lake_Washington_Level 10/23/1983 0          17.41     
Lake_Washington_Level 10/24/1983 0          17.35     
Lake_Washington_Level 10/25/1983 0          17.33     
Lake_Washington_Level 10/26/1983 0          17.3      
Lake_Washington_Level 10/27/1983 0          17.35     
Lake_Washington_Level 10/28/1983 0          17.3      
Lake_Washington_Level 10/29/1983 0          17.27     
Lake_Washington_Level 10/30/1983 0          17.26     
Lake_Washington_Level 10/31/1983 0          17.2      
Lake_Washington_Level 11/01/1983 0          17.2      
Lake_Washington_Level 11/02/1983 0          17.18     
Lake_Washington_Level 11/03/1983 0          17.25     
Lake_Washington_Level 11/04/1983 0          17.16     
Lake_Washington_Level 11/05/1983 0          17.16     
Lake_Washington_Level 11/06/1983 0          17.08     
Lake_Washington_Level 11/07/1983 0          17.12     
Lake_Washington_Level 11/08/1983 0          17.15     
Lake_Washington_Level 11/09/1983 0          17.14     
Lake_Washington_Level 11/10/1983 0          17.13     
Lake_Washington_Level 11/11/1983 0          17        
Lake_Washington_Level 11/12/1983 0          17        
Lake_Washington_Level 11/13/1983 0          17        
Lake_Washington_Level 11/14/1983 0          17        
Lake_Washington_Level 11/15/1983 0          17.01     
Lake_Washington_Level 11/16/1983 0          17        
Lake_Washington_Level 11/17/1983 0          17.02     
Lake_Washington_Level 11/18/1983 0          16.95     
Lake_Washington_Level 11/19/1983 0          16.92     
Lake_Washington_Level 11/20/1983 0          16.95     
Lake_Washington_Level 11/21/1983 0          16.95     
Lake_Washington_Level 11/22/1983 0          16.98     
Lake_Washington_Level 11/23/1983 0          16.88     
Lake_Washington_Level 11/24/1983 0          16.85     
Lake_Washington_Level 11/25/1983 0          16.84     
Lake_Washington_Level 11/26/1983 0          16.83     
Lake_Washington_Level 11/27/1983 0          16.8      
Lake_Washington_Level 11/28/1983 0          16.8      
Lake_Washington_Level 11/29/1983 0          16.81     
Lake_Washington_Level 11/30/1983 0          16.79     
Lake_Washington_Level 12/01/1983 0          16.78     
Lake_Washington_Level 12/02/1983 0          16.77     
Lake_Washington_Level 12/03/1983 0          16.76     
Lake_Washington_Level 12/04/1983 0          16.75     
Lake_Washington_Level 12/05/1983 0          16.76     
Lake_Washington_Level 12/06/1983 0          16.76     
Lake_Washington_Level 12/07/1983 0          16.79     
Lake_Washington_Level 12/08/1983 0          16.78     
Lake_Washington_Level 12/09/1983 0          16.76     
Lake_Washington_Level 12/10/1983 0          16.81     
Lake_Washington_Level 12/11/1983 0          16.75     
Lake_Washington_Level 12/12/1983 0          16.79     
Lake_Washington_Level 12/13/1983 0          16.78     
Lake_Washington_Level 12/14/1983 0          16.76     
Lake_Washington_Level 12/15/1983 0          16.77     
Lake_Washington_Level 12/16/1983 0          16.77     
Lake_Washington_Level 12/17/1983 0          16.77     
Lake_Washington_Level 12/18/1983 0          16.76     
Lake_Washington_Level 12/19/1983 0          16.8      
Lake_Washington_Level 12/20/1983 0          16.79     
Lake_Washington_Level 12/21/1983 0          16.79     
Lake_Washington_Level 12/22/1983 0          16.78     
Lake_Washington_Level 12/23/1983 0          16.77     
Lake_Washington_Level 12/24/1983 0          16.77     
Lake_Washington_Level 12/25/1983 0          16.77     
Lake_Washington_Level 12/26/1983 0          16.77     
Lake_Washington_Level 12/27/1983 0          16.76     
Lake_Washington_Level 12/28/1983 0          16.77     
Lake_Washington_Level 12/29/1983 0          16.75     
Lake_Washington_Level 12/30/1983 0          16.77     
Lake_Washington_Level 12/31/1983 0          16.76     
Lake_Washington_Level 01/01/1984 0          16.76     
Lake_Washington_Level 01/02/1984 0          16.81     
Lake_Washington_Level 01/03/1984 0          16.78     
Lake_Washington_Level 01/04/1984 0          16.77     
Lake_Washington_Level 01/05/1984 0          16.79     
Lake_Washington_Level 01/06/1984 0          16.76     
Lake_Washington_Level 01/07/1984 0          16.78     
Lake_Washington_Level 01/08/1984 0          16.8      
Lake_Washington_Level 01/09/1984 0          16.77     
Lake_Washington_Level 01/10/1984 0          16.75     
Lake_Washington_Level 01/11/1984 0          16.77     
Lake_Washington_Level 01/12/1984 0          16.78     
Lake_Washington_Level 01/13/1984 0          16.78     
Lake_Washington_Level 01/14/1984 0          16.76     
Lake_Washington_Level 01/15/1984 0          16.76     
Lake_Washington_Level 01/16/1984 0          16.75     
Lake_Washington_Level 01/17/1984 0          16.78     
Lake_Washington_Level 01/18/1984 0          16.76     
Lake_Washington_Level 01/19/1984 0          16.75     
Lake_Washington_Level 01/20/1984 0          16.75     
Lake_Washington_Level 01/21/1984 0          16.75     
Lake_Washington_Level 01/22/1984 0          16.79     
Lake_Washington_Level 01/23/1984 0          16.75     
Lake_Washington_Level 01/24/1984 0          16.78     
Lake_Washington_Level 01/25/1984 0          16.79     
Lake_Washington_Level 01/26/1984 0          16.8      
Lake_Washington_Level 01/27/1984 0          16.78     
Lake_Washington_Level 01/28/1984 0          16.75     
Lake_Washington_Level 01/29/1984 0          16.76     
Lake_Washington_Level 01/30/1984 0          16.78     
Lake_Washington_Level 01/31/1984 0          16.76     
Lake_Washington_Level 02/01/1984 0          16.76     
Lake_Washington_Level 02/02/1984 0          16.75     
Lake_Washington_Level 02/03/1984 0          16.75     
Lake_Washington_Level 02/04/1984 0          16.79     
Lake_Washington_Level 02/05/1984 0          16.76     
Lake_Washington_Level 02/06/1984 0          16.75     
Lake_Washington_Level 02/07/1984 0          16.77     
Lake_Washington_Level 02/08/1984 0          16.77     
Lake_Washington_Level 02/09/1984 0          16.81     
Lake_Washington_Level 02/10/1984 0          16.75     
Lake_Washington_Level 02/11/1984 0          16.77     
Lake_Washington_Level 02/12/1984 0          16.75     
Lake_Washington_Level 02/13/1984 0          16.78     
Lake_Washington_Level 02/14/1984 0          16.76     
Lake_Washington_Level 02/15/1984 0          16.78     
Lake_Washington_Level 02/16/1984 0          16.77     
Lake_Washington_Level 02/17/1984 0          16.77     
Lake_Washington_Level 02/18/1984 0          16.78     
Lake_Washington_Level 02/19/1984 0          16.86     
Lake_Washington_Level 02/20/1984 0          16.88     
Lake_Washington_Level 02/21/1984 0          16.86     
Lake_Washington_Level 02/22/1984 0          16.89     
Lake_Washington_Level 02/23/1984 0          16.99     
Lake_Washington_Level 02/24/1984 0          16.99     
Lake_Washington_Level 02/25/1984 0          16.95     
Lake_Washington_Level 02/26/1984 0          16.95     
Lake_Washington_Level 02/27/1984 0          17.04     
Lake_Washington_Level 02/28/1984 0          17.06     
Lake_Washington_Level 02/29/1984 0          17.06     
Lake_Washington_Level 03/01/1984 0          17.06     
Lake_Washington_Level 03/02/1984 0          17.1      
Lake_Washington_Level 03/03/1984 0          17.18     
Lake_Washington_Level 03/04/1984 0          17.17     
Lake_Washington_Level 03/05/1984 0          17.23     
Lake_Washington_Level 03/06/1984 0          17.25     
Lake_Washington_Level 03/07/1984 0          17.29     
Lake_Washington_Level 03/08/1984 0          17.31     
Lake_Washington_Level 03/09/1984 0          17.3      
Lake_Washington_Level 03/10/1984 0          17.35     
Lake_Washington_Level 03/11/1984 0          17.37     
Lake_Washington_Level 03/12/1984 0          17.42     
Lake_Washington_Level 03/13/1984 0          17.32     
Lake_Washington_Level 03/14/1984 0          17.4      
Lake_Washington_Level 03/15/1984 0          17.5      
Lake_Washington_Level 03/16/1984 0          17.49     
Lake_Washington_Level 03/17/1984 0          17.45     
Lake_Washington_Level 03/18/1984 0          17.49     
Lake_Washington_Level 03/19/1984 0          17.48     
Lake_Washington_Level 03/20/1984 0          17.58     
Lake_Washington_Level 03/21/1984 0          17.6      
Lake_Washington_Level 03/22/1984 0          17.6      
Lake_Washington_Level 03/23/1984 0          17.7      
Lake_Washington_Level 03/24/1984 0          17.66     
Lake_Washington_Level 03/25/1984 0          17.65     
Lake_Washington_Level 03/26/1984 0          17.7      
Lake_Washington_Level 03/27/1984 0          17.78     
Lake_Washington_Level 03/28/1984 0          17.82     
Lake_Washington_Level 03/29/1984 0          17.76     
Lake_Washington_Level 03/30/1984 0          17.83     
Lake_Washington_Level 03/31/1984 0          17.76     
Lake_Washington_Level 04/01/1984 0          17.76     
Lake_Washington_Level 04/02/1984 0          17.91     
Lake_Washington_Level 04/03/1984 0          17.87     
Lake_Washington_Level 04/04/1984 0          17.89     
Lake_Washington_Level 04/05/1984 0          17.97     
Lake_Washington_Level 04/06/1984 0          17.97     
Lake_Washington_Level 04/07/1984 0          18.07     
Lake_Washington_Level 04/08/1984 0          18.1      
Lake_Washington_Level 04/09/1984 0          18.09     
Lake_Washington_Level 04/10/1984 0          18.12     
Lake_Washington_Level 04/11/1984 0          18.12     
Lake_Washington_Level 04/12/1984 0          18.13     
Lake_Washington_Level 04/13/1984 0          18.18     
Lake_Washington_Level 04/14/1984 0          18.18     
Lake_Washington_Level 04/15/1984 0          18.2      
Lake_Washington_Level 04/16/1984 0          18.21     
Lake_Washington_Level 04/17/1984 0          18.27     
Lake_Washington_Level 04/18/1984 0          18.35     
Lake_Washington_Level 04/19/1984 0          18.18     
Lake_Washington_Level 04/20/1984 0          18.21     
Lake_Washington_Level 04/21/1984 0          18.3      
Lake_Washington_Level 04/22/1984 0          18.35     
Lake_Washington_Level 04/23/1984 0          18.43     
Lake_Washington_Level 04/24/1984 0          18.47     
Lake_Washington_Level 04/25/1984 0          18.49     
Lake_Washington_Level 04/26/1984 0          18.52     
Lake_Washington_Level 04/27/1984 0          18.52     
Lake_Washington_Level 04/28/1984 0          18.54     
Lake_Washington_Level 04/29/1984 0          18.56     
Lake_Washington_Level 04/30/1984 0          18.56     
Lake_Washington_Level 05/01/1984 0          18.57     
Lake_Washington_Level 05/02/1984 0          18.58     
Lake_Washington_Level 05/03/1984 0          18.54     
Lake_Washington_Level 05/04/1984 0          18.6      
Lake_Washington_Level 05/05/1984 0          18.59     
Lake_Washington_Level 05/06/1984 0          18.6      
Lake_Washington_Level 05/07/1984 0          18.62     
Lake_Washington_Level 05/08/1984 0          18.6      
Lake_Washington_Level 05/09/1984 0          18.6      
Lake_Washington_Level 05/10/1984 0          18.6      
Lake_Washington_Level 05/11/1984 0          18.6      
Lake_Washington_Level 05/12/1984 0          18.6      
Lake_Washington_Level 05/13/1984 0          18.6      
Lake_Washington_Level 05/14/1984 0          18.6      
Lake_Washington_Level 05/15/1984 0          18.6      
Lake_Washington_Level 05/16/1984 0          18.6      
Lake_Washington_Level 05/17/1984 0          18.61     
Lake_Washington_Level 05/18/1984 0          18.6      
Lake_Washington_Level 05/19/1984 0          18.6      
Lake_Washington_Level 05/20/1984 0          18.6      
Lake_Washington_Level 05/21/1984 0          18.6      
Lake_Washington_Level 05/22/1984 0          18.6      
Lake_Washington_Level 05/23/1984 0          18.6      
Lake_Washington_Level 05/24/1984 0          18.6      
Lake_Washington_Level 05/25/1984 0          18.6      
Lake_Washington_Level 05/26/1984 0          18.57     
Lake_Washington_Level 05/27/1984 0          18.59     
Lake_Washington_Level 05/28/1984 0          18.61     
Lake_Washington_Level 05/29/1984 0          18.6      
Lake_Washington_Level 05/30/1984 0          18.6      
Lake_Washington_Level 05/31/1984 0          18.6      
Lake_Washington_Level 06/01/1984 0          18.6      
Lake_Washington_Level 06/02/1984 0          18.6      
Lake_Washington_Level 06/03/1984 0          18.6      
Lake_Washington_Level 06/04/1984 0          18.6      
Lake_Washington_Level 06/05/1984 0          18.6      
Lake_Washington_Level 06/06/1984 0          18.61     
Lake_Washington_Level 06/07/1984 0          18.6      
Lake_Washington_Level 06/08/1984 0          18.6      
Lake_Washington_Level 06/09/1984 0          18.6      
Lake_Washington_Level 06/10/1984 0          18.6      
Lake_Washington_Level 06/11/1984 0          18.6      
Lake_Washington_Level 06/12/1984 0          18.58     
Lake_Washington_Level 06/13/1984 0          18.58     
Lake_Washington_Level 06/14/1984 0          18.6      
Lake_Washington_Level 06/15/1984 0          18.6      
Lake_Washington_Level 06/16/1984 0          18.6      
Lake_Washington_Level 06/17/1984 0          18.6      
Lake_Washington_Level 06/18/1984 0          18.6      
Lake_Washington_Level 06/19/1984 0          18.6      
Lake_Washington_Level 06/20/1984 0          18.6      
Lake_Washington_Level 06/21/1984 0          18.6      
Lake_Washington_Level 06/22/1984 0          18.6      
Lake_Washington_Level 06/23/1984 0          18.6      
Lake_Washington_Level 06/24/1984 0          18.6      
Lake_Washington_Level 06/25/1984 0          18.6      
Lake_Washington_Level 06/26/1984 0          18.6      
Lake_Washington_Level 06/27/1984 0          18.6      
Lake_Washington_Level 06/28/1984 0          18.6      
Lake_Washington_Level 06/29/1984 0          18.6      
Lake_Washington_Level 06/30/1984 0          18.6      
Lake_Washington_Level 07/01/1984 0          18.6      
Lake_Washington_Level 07/02/1984 0          18.6      
Lake_Washington_Level 07/03/1984 0          18.6      
Lake_Washington_Level 07/04/1984 0          18.6      
Lake_Washington_Level 07/05/1984 0          18.6      
Lake_Washington_Level 07/06/1984 0          18.6      
Lake_Washington_Level 07/07/1984 0          18.59     
Lake_Washington_Level 07/08/1984 0          18.56     
Lake_Washington_Level 07/09/1984 0          18.6      
Lake_Washington_Level 07/10/1984 0          18.6      
Lake_Washington_Level 07/11/1984 0          18.6      
Lake_Washington_Level 07/12/1984 0          18.6      
Lake_Washington_Level 07/13/1984 0          18.6      
Lake_Washington_Level 07/14/1984 0          18.54     
Lake_Washington_Level 07/15/1984 0          18.49     
Lake_Washington_Level 07/16/1984 0          18.51     
Lake_Washington_Level 07/17/1984 0          18.49     
Lake_Washington_Level 07/18/1984 0          18.46     
Lake_Washington_Level 07/19/1984 0          18.45     
Lake_Washington_Level 07/20/1984 0          18.45     
Lake_Washington_Level 07/21/1984 0          18.4      
Lake_Washington_Level 07/22/1984 0          18.35     
Lake_Washington_Level 07/23/1984 0          18.35     
Lake_Washington_Level 07/24/1984 0          18.35     
Lake_Washington_Level 07/25/1984 0          18.31     
Lake_Washington_Level 07/26/1984 0          18.29     
Lake_Washington_Level 07/27/1984 0          18.29     
Lake_Washington_Level 07/28/1984 0          18.24     
Lake_Washington_Level 07/29/1984 0          18.22     
Lake_Washington_Level 07/30/1984 0          18.21     
Lake_Washington_Level 07/31/1984 0          18.16     
Lake_Washington_Level 08/01/1984 0          18.16     
Lake_Washington_Level 08/02/1984 0          18.15     
Lake_Washington_Level 08/03/1984 0          18.11     
Lake_Washington_Level 08/04/1984 0          18.08     
Lake_Washington_Level 08/05/1984 0          18.04     
Lake_Washington_Level 08/06/1984 0          18.02     
Lake_Washington_Level 08/07/1984 0          18.01     
Lake_Washington_Level 08/08/1984 0          17.98     
Lake_Washington_Level 08/09/1984 0          17.97     
Lake_Washington_Level 08/10/1984 0          17.95     
Lake_Washington_Level 08/11/1984 0          17.88     
Lake_Washington_Level 08/12/1984 0          17.87     
Lake_Washington_Level 08/13/1984 0          17.87     
Lake_Washington_Level 08/14/1984 0          17.85     
Lake_Washington_Level 08/15/1984 0          17.83     
Lake_Washington_Level 08/16/1984 0          17.83     
Lake_Washington_Level 08/17/1984 0          17.79     
Lake_Washington_Level 08/18/1984 0          17.75     
Lake_Washington_Level 08/19/1984 0          17.77     
Lake_Washington_Level 08/20/1984 0          17.67     
Lake_Washington_Level 08/21/1984 0          17.68     
Lake_Washington_Level 08/22/1984 0          17.64     
Lake_Washington_Level 08/23/1984 0          17.62     
Lake_Washington_Level 08/24/1984 0          17.63     
Lake_Washington_Level 08/25/1984 0          17.59     
Lake_Washington_Level 08/26/1984 0          17.56     
Lake_Washington_Level 08/27/1984 0          17.56     
Lake_Washington_Level 08/28/1984 0          17.55     
Lake_Washington_Level 08/29/1984 0          17.48     
Lake_Washington_Level 08/30/1984 0          17.43     
Lake_Washington_Level 08/31/1984 0          17.48     
Lake_Washington_Level 09/01/1984 0          17.41     
Lake_Washington_Level 09/02/1984 0          17.39     
Lake_Washington_Level 09/03/1984 0          17.36     
Lake_Washington_Level 09/04/1984 0          17.33     
Lake_Washington_Level 09/05/1984 0          17.33     
Lake_Washington_Level 09/06/1984 0          17.42     
Lake_Washington_Level 09/07/1984 0          17.37     
Lake_Washington_Level 09/08/1984 0          17.39     
Lake_Washington_Level 09/09/1984 0          17.4      
Lake_Washington_Level 09/10/1984 0          17.39     
Lake_Washington_Level 09/11/1984 0          17.39     
Lake_Washington_Level 09/12/1984 0          17.37     
Lake_Washington_Level 09/13/1984 0          17.34     
Lake_Washington_Level 09/14/1984 0          17.32     
Lake_Washington_Level 09/15/1984 0          17.33     
Lake_Washington_Level 09/16/1984 0          17.32     
Lake_Washington_Level 09/17/1984 0          17.3      
Lake_Washington_Level 09/18/1984 0          17.31     
Lake_Washington_Level 09/19/1984 0          17.25     
Lake_Washington_Level 09/20/1984 0          17.23     
Lake_Washington_Level 09/21/1984 0          17.25     
Lake_Washington_Level 09/22/1984 0          17.28     
Lake_Washington_Level 09/23/1984 0          17.25     
Lake_Washington_Level 09/24/1984 0          17.3      
Lake_Washington_Level 09/25/1984 0          17.27     
Lake_Washington_Level 09/26/1984 0          17.27     
Lake_Washington_Level 09/27/1984 0          17.27     
Lake_Washington_Level 09/28/1984 0          17.21     
Lake_Washington_Level 09/29/1984 0          17.24     
Lake_Washington_Level 09/30/1984 0          17.21     
Lake_Washington_Level 10/01/1984 0          17.21     
Lake_Washington_Level 10/02/1984 0          17.18     
Lake_Washington_Level 10/03/1984 0          17.16     
Lake_Washington_Level 10/04/1984 0          17.17     
Lake_Washington_Level 10/05/1984 0          17.17     
Lake_Washington_Level 10/06/1984 0          17.16     
Lake_Washington_Level 10/07/1984 0          17.17     
Lake_Washington_Level 10/08/1984 0          17.1      
Lake_Washington_Level 10/09/1984 0          17.13     
Lake_Washington_Level 10/10/1984 0          17.19     
Lake_Washington_Level 10/11/1984 0          17.33     
Lake_Washington_Level 10/12/1984 0          17.36     
Lake_Washington_Level 10/13/1984 0          17.37     
Lake_Washington_Level 10/14/1984 0          17.38     
Lake_Washington_Level 10/15/1984 0          17.38     
Lake_Washington_Level 10/16/1984 0          17.4      
Lake_Washington_Level 10/17/1984 0          17.4      
Lake_Washington_Level 10/18/1984 0          17.41     
Lake_Washington_Level 10/19/1984 0          17.41     
Lake_Washington_Level 10/20/1984 0          17.42     
Lake_Washington_Level 10/21/1984 0          17.41     
Lake_Washington_Level 10/22/1984 0          17.41     
Lake_Washington_Level 10/23/1984 0          17.4      
Lake_Washington_Level 10/24/1984 0          17.34     
Lake_Washington_Level 10/25/1984 0          17.25     
Lake_Washington_Level 10/26/1984 0          17.25     
Lake_Washington_Level 10/27/1984 0          17.21     
Lake_Washington_Level 10/28/1984 0          17.2      
Lake_Washington_Level 10/29/1984 0          17.18     
Lake_Washington_Level 10/30/1984 0          17.15     
Lake_Washington_Level 10/31/1984 0          17.14     
Lake_Washington_Level 11/01/1984 0          17.15     
Lake_Washington_Level 11/02/1984 0          17.18     
Lake_Washington_Level 11/03/1984 0          17.04     
Lake_Washington_Level 11/04/1984 0          17.03     
Lake_Washington_Level 11/05/1984 0          17        
Lake_Washington_Level 11/06/1984 0          17.06     
Lake_Washington_Level 11/07/1984 0          17.07     
Lake_Washington_Level 11/08/1984 0          17.07     
Lake_Washington_Level 11/09/1984 0          17.1      
Lake_Washington_Level 11/10/1984 0          17.11     
Lake_Washington_Level 11/11/1984 0          17.07     
Lake_Washington_Level 11/12/1984 0          17        
Lake_Washington_Level 11/13/1984 0          17        
Lake_Washington_Level 11/14/1984 0          16.99     
Lake_Washington_Level 11/15/1984 0          17.01     
Lake_Washington_Level 11/16/1984 0          16.97     
Lake_Washington_Level 11/17/1984 0          16.93     
Lake_Washington_Level 11/18/1984 0          16.93     
Lake_Washington_Level 11/19/1984 0          16.91     
Lake_Washington_Level 11/20/1984 0          16.92     
Lake_Washington_Level 11/21/1984 0          16.91     
Lake_Washington_Level 11/22/1984 0          16.89     
Lake_Washington_Level 11/23/1984 0          16.9      
Lake_Washington_Level 11/24/1984 0          16.84     
Lake_Washington_Level 11/25/1984 0          16.8      
Lake_Washington_Level 11/26/1984 0          16.82     
Lake_Washington_Level 11/27/1984 0          16.82     
Lake_Washington_Level 11/28/1984 0          16.79     
Lake_Washington_Level 11/29/1984 0          16.78     
Lake_Washington_Level 11/30/1984 0          16.75     
Lake_Washington_Level 12/01/1984 0          16.76     
Lake_Washington_Level 12/02/1984 0          16.77     
Lake_Washington_Level 12/03/1984 0          16.78     
Lake_Washington_Level 12/04/1984 0          16.76     
Lake_Washington_Level 12/05/1984 0          16.75     
Lake_Washington_Level 12/06/1984 0          16.77     
Lake_Washington_Level 12/07/1984 0          16.78     
Lake_Washington_Level 12/08/1984 0          16.78     
Lake_Washington_Level 12/09/1984 0          16.77     
Lake_Washington_Level 12/10/1984 0          16.77     
Lake_Washington_Level 12/11/1984 0          16.8      
Lake_Washington_Level 12/12/1984 0          16.78     
Lake_Washington_Level 12/13/1984 0          16.75     
Lake_Washington_Level 12/14/1984 0          16.76     
Lake_Washington_Level 12/15/1984 0          16.79     
Lake_Washington_Level 12/16/1984 0          16.76     
Lake_Washington_Level 12/17/1984 0          16.77     
Lake_Washington_Level 12/18/1984 0          16.8      
Lake_Washington_Level 12/19/1984 0          16.76     
Lake_Washington_Level 12/20/1984 0          16.78     
Lake_Washington_Level 12/21/1984 0          16.77     
Lake_Washington_Level 12/22/1984 0          16.76     
Lake_Washington_Level 12/23/1984 0          16.76     
Lake_Washington_Level 12/24/1984 0          16.76     
Lake_Washington_Level 12/25/1984 0          16.79     
Lake_Washington_Level 12/26/1984 0          16.8      
Lake_Washington_Level 12/27/1984 0          16.79     
Lake_Washington_Level 12/28/1984 0          16.76     
Lake_Washington_Level 12/29/1984 0          16.77     
Lake_Washington_Level 12/30/1984 0          16.76     
Lake_Washington_Level 12/31/1984 0          16.75     
Lake_Washington_Level 01/01/1985 0          16.77     
Lake_Washington_Level 01/02/1985 0          16.78     
Lake_Washington_Level 01/03/1985 0          16.76     
Lake_Washington_Level 01/04/1985 0          16.79     
Lake_Washington_Level 01/05/1985 0          16.75     
Lake_Washington_Level 01/06/1985 0          16.79     
Lake_Washington_Level 01/07/1985 0          16.78     
Lake_Washington_Level 01/08/1985 0          16.75     
Lake_Washington_Level 01/09/1985 0          16.75     
Lake_Washington_Level 01/10/1985 0          16.78     
Lake_Washington_Level 01/11/1985 0          16.76     
Lake_Washington_Level 01/12/1985 0          16.78     
Lake_Washington_Level 01/13/1985 0          16.79     
Lake_Washington_Level 01/14/1985 0          16.77     
Lake_Washington_Level 01/15/1985 0          16.76     
Lake_Washington_Level 01/16/1985 0          16.77     
Lake_Washington_Level 01/17/1985 0          16.78     
Lake_Washington_Level 01/18/1985 0          16.77     
Lake_Washington_Level 01/19/1985 0          16.8      
Lake_Washington_Level 01/20/1985 0          16.8      
Lake_Washington_Level 01/21/1985 0          16.77     
Lake_Washington_Level 01/22/1985 0          16.76     
Lake_Washington_Level 01/23/1985 0          16.81     
Lake_Washington_Level 01/24/1985 0          16.77     
Lake_Washington_Level 01/25/1985 0          16.77     
Lake_Washington_Level 01/26/1985 0          16.75     
Lake_Washington_Level 01/27/1985 0          16.79     
Lake_Washington_Level 01/28/1985 0          16.75     
Lake_Washington_Level 01/29/1985 0          16.76     
Lake_Washington_Level 01/30/1985 0          16.78     
Lake_Washington_Level 01/31/1985 0          16.8      
Lake_Washington_Level 02/01/1985 0          16.79     
Lake_Washington_Level 02/02/1985 0          16.75     
Lake_Washington_Level 02/03/1985 0          16.77     
Lake_Washington_Level 02/04/1985 0          16.8      
Lake_Washington_Level 02/05/1985 0          16.78     
Lake_Washington_Level 02/06/1985 0          16.76     
Lake_Washington_Level 02/07/1985 0          16.77     
Lake_Washington_Level 02/08/1985 0          16.77     
Lake_Washington_Level 02/09/1985 0          16.78     
Lake_Washington_Level 02/10/1985 0          16.77     
Lake_Washington_Level 02/11/1985 0          16.81     
Lake_Washington_Level 02/12/1985 0          16.76     
Lake_Washington_Level 02/13/1985 0          16.78     
Lake_Washington_Level 02/14/1985 0          16.8      
Lake_Washington_Level 02/15/1985 0          16.77     
Lake_Washington_Level 02/16/1985 0          16.8      
Lake_Washington_Level 02/17/1985 0          16.8      
Lake_Washington_Level 02/18/1985 0          16.84     
Lake_Washington_Level 02/19/1985 0          16.86     
Lake_Washington_Level 02/20/1985 0          16.87     
Lake_Washington_Level 02/21/1985 0          16.85     
Lake_Washington_Level 02/22/1985 0          16.88     
Lake_Washington_Level 02/23/1985 0          16.95     
Lake_Washington_Level 02/24/1985 0          16.99     
Lake_Washington_Level 02/25/1985 0          17        
Lake_Washington_Level 02/26/1985 0          17        
Lake_Washington_Level 02/27/1985 0          17.06     
Lake_Washington_Level 02/28/1985 0          17.09     
Lake_Washington_Level 03/01/1985 0          17.09     
Lake_Washington_Level 03/02/1985 0          17.13     
Lake_Washington_Level 03/03/1985 0          17.14     
Lake_Washington_Level 03/04/1985 0          17.19     
Lake_Washington_Level 03/05/1985 0          17.2      
Lake_Washington_Level 03/06/1985 0          17.22     
Lake_Washington_Level 03/07/1985 0          17.28     
Lake_Washington_Level 03/08/1985 0          17.31     
Lake_Washington_Level 03/09/1985 0          17.32     
Lake_Washington_Level 03/10/1985 0          17.37     
Lake_Washington_Level 03/11/1985 0          17.4      
Lake_Washington_Level 03/12/1985 0          17.4      
Lake_Washington_Level 03/13/1985 0          17.4      
Lake_Washington_Level 03/14/1985 0          17.41     
Lake_Washington_Level 03/15/1985 0          17.46     
Lake_Washington_Level 03/16/1985 0          17.46     
Lake_Washington_Level 03/17/1985 0          17.5      
Lake_Washington_Level 03/18/1985 0          17.47     
Lake_Washington_Level 03/19/1985 0          17.51     
Lake_Washington_Level 03/20/1985 0          17.5      
Lake_Washington_Level 03/21/1985 0          17.57     
Lake_Washington_Level 03/22/1985 0          17.61     
Lake_Washington_Level 03/23/1985 0          17.69     
Lake_Washington_Level 03/24/1985 0          17.73     
Lake_Washington_Level 03/25/1985 0          17.65     
Lake_Washington_Level 03/26/1985 0          17.69     
Lake_Washington_Level 03/27/1985 0          17.77     
Lake_Washington_Level 03/28/1985 0          17.81     
Lake_Washington_Level 03/29/1985 0          17.83     
Lake_Washington_Level 03/30/1985 0          17.8      
Lake_Washington_Level 03/31/1985 0          17.8      
Lake_Washington_Level 04/01/1985 0          17.89     
Lake_Washington_Level 04/02/1985 0          17.9      
Lake_Washington_Level 04/03/1985 0          17.92     
Lake_Washington_Level 04/04/1985 0          17.92     
Lake_Washington_Level 04/05/1985 0          17.99     
Lake_Washington_Level 04/06/1985 0          17.99     
Lake_Washington_Level 04/07/1985 0          18.03     
Lake_Washington_Level 04/08/1985 0          18.03     
Lake_Washington_Level 04/09/1985 0          18.14     
Lake_Washington_Level 04/10/1985 0          18.14     
Lake_Washington_Level 04/11/1985 0          18.14     
Lake_Washington_Level 04/12/1985 0          18.19     
Lake_Washington_Level 04/13/1985 0          18.23     
Lake_Washington_Level 04/14/1985 0          18.24     
Lake_Washington_Level 04/15/1985 0          18.23     
Lake_Washington_Level 04/16/1985 0          18.29     
Lake_Washington_Level 04/17/1985 0          18.29     
Lake_Washington_Level 04/18/1985 0          18.35     
Lake_Washington_Level 04/19/1985 0          18.33     
Lake_Washington_Level 04/20/1985 0          18.31     
Lake_Washington_Level 04/21/1985 0          18.33     
Lake_Washington_Level 04/22/1985 0          18.42     
Lake_Washington_Level 04/23/1985 0          18.42     
Lake_Washington_Level 04/24/1985 0          18.47     
Lake_Washington_Level 04/25/1985 0          18.5      
Lake_Washington_Level 04/26/1985 0          18.45     
Lake_Washington_Level 04/27/1985 0          18.53     
Lake_Washington_Level 04/28/1985 0          18.49     
Lake_Washington_Level 04/29/1985 0          18.55     
Lake_Washington_Level 04/30/1985 0          18.55     
Lake_Washington_Level 05/01/1985 0          18.61     
Lake_Washington_Level 05/02/1985 0          18.6      
Lake_Washington_Level 05/03/1985 0          18.6      
Lake_Washington_Level 05/04/1985 0          18.59     
Lake_Washington_Level 05/05/1985 0          18.6      
Lake_Washington_Level 05/06/1985 0          18.6      
Lake_Washington_Level 05/07/1985 0          18.61     
Lake_Washington_Level 05/08/1985 0          18.61     
Lake_Washington_Level 05/09/1985 0          18.61     
Lake_Washington_Level 05/10/1985 0          18.59     
Lake_Washington_Level 05/11/1985 0          18.6      
Lake_Washington_Level 05/12/1985 0          18.6      
Lake_Washington_Level 05/13/1985 0          18.6      
Lake_Washington_Level 05/14/1985 0          18.6      
Lake_Washington_Level 05/15/1985 0          18.6      
Lake_Washington_Level 05/16/1985 0          18.57     
Lake_Washington_Level 05/17/1985 0          18.6      
Lake_Washington_Level 05/18/1985 0          18.6      
Lake_Washington_Level 05/19/1985 0          18.6      
Lake_Washington_Level 05/20/1985 0          18.6      
Lake_Washington_Level 05/21/1985 0          18.6      
Lake_Washington_Level 05/22/1985 0          18.6      
Lake_Washington_Level 05/23/1985 0          18.6      
Lake_Washington_Level 05/24/1985 0          18.6      
Lake_Washington_Level 05/25/1985 0          18.6      
Lake_Washington_Level 05/26/1985 0          18.6      
Lake_Washington_Level 05/27/1985 0          18.6      
Lake_Washington_Level 05/28/1985 0          18.6      
Lake_Washington_Level 05/29/1985 0          18.6      
Lake_Washington_Level 05/30/1985 0          18.6      
Lake_Washington_Level 05/31/1985 0          18.6      
Lake_Washington_Level 06/01/1985 0          18.6      
Lake_Washington_Level 06/02/1985 0          18.6      
Lake_Washington_Level 06/03/1985 0          18.6      
Lake_Washington_Level 06/04/1985 0          18.6      
Lake_Washington_Level 06/05/1985 0          18.6      
Lake_Washington_Level 06/06/1985 0          18.6      
Lake_Washington_Level 06/07/1985 0          18.75     
Lake_Washington_Level 06/08/1985 0          18.73     
Lake_Washington_Level 06/09/1985 0          18.75     
Lake_Washington_Level 06/10/1985 0          18.75     
Lake_Washington_Level 06/11/1985 0          18.75     
Lake_Washington_Level 06/12/1985 0          18.75     
Lake_Washington_Level 06/13/1985 0          18.75     
Lake_Washington_Level 06/14/1985 0          18.75     
Lake_Washington_Level 06/15/1985 0          18.75     
Lake_Washington_Level 06/16/1985 0          18.65     
Lake_Washington_Level 06/17/1985 0          18.7      
Lake_Washington_Level 06/18/1985 0          18.7      
Lake_Washington_Level 06/19/1985 0          18.7      
Lake_Washington_Level 06/20/1985 0          18.75     
Lake_Washington_Level 06/21/1985 0          18.75     
Lake_Washington_Level 06/22/1985 0          18.75     
Lake_Washington_Level 06/23/1985 0          18.75     
Lake_Washington_Level 06/24/1985 0          18.75     
Lake_Washington_Level 06/25/1985 0          18.69     
Lake_Washington_Level 06/26/1985 0          18.75     
Lake_Washington_Level 06/27/1985 0          18.68     
Lake_Washington_Level 06/28/1985 0          18.7      
Lake_Washington_Level 06/29/1985 0          18.67     
Lake_Washington_Level 06/30/1985 0          18.65     
Lake_Washington_Level 07/01/1985 0          18.62     
Lake_Washington_Level 07/02/1985 0          18.61     
Lake_Washington_Level 07/03/1985 0          18.61     
Lake_Washington_Level 07/04/1985 0          18.6      
Lake_Washington_Level 07/05/1985 0          18.6      
Lake_Washington_Level 07/06/1985 0          18.54     
Lake_Washington_Level 07/07/1985 0          18.52     
Lake_Washington_Level 07/08/1985 0          18.5      
Lake_Washington_Level 07/09/1985 0          18.52     
Lake_Washington_Level 07/10/1985 0          18.43     
Lake_Washington_Level 07/11/1985 0          18.43     
Lake_Washington_Level 07/12/1985 0          18.43     
Lake_Washington_Level 07/13/1985 0          18.38     
Lake_Washington_Level 07/14/1985 0          18.34     
Lake_Washington_Level 07/15/1985 0          18.32     
Lake_Washington_Level 07/16/1985 0          18.32     
Lake_Washington_Level 07/17/1985 0          18.28     
Lake_Washington_Level 07/18/1985 0          18.27     
Lake_Washington_Level 07/19/1985 0          18.21     
Lake_Washington_Level 07/20/1985 0          18.2      
Lake_Washington_Level 07/21/1985 0          18.18     
Lake_Washington_Level 07/22/1985 0          18.16     
Lake_Washington_Level 07/23/1985 0          18.09     
Lake_Washington_Level 07/24/1985 0          18.08     
Lake_Washington_Level 07/25/1985 0          18.05     
Lake_Washington_Level 07/26/1985 0          18.01     
Lake_Washington_Level 07/27/1985 0          17.99     
Lake_Washington_Level 07/28/1985 0          17.92     
Lake_Washington_Level 07/29/1985 0          17.92     
Lake_Washington_Level 07/30/1985 0          17.92     
Lake_Washington_Level 07/31/1985 0          17.88     
Lake_Washington_Level 08/01/1985 0          17.89     
Lake_Washington_Level 08/02/1985 0          17.86     
Lake_Washington_Level 08/03/1985 0          17.83     
Lake_Washington_Level 08/04/1985 0          17.82     
Lake_Washington_Level 08/05/1985 0          17.79     
Lake_Washington_Level 08/06/1985 0          17.77     
Lake_Washington_Level 08/07/1985 0          17.75     
Lake_Washington_Level 08/08/1985 0          17.75     
Lake_Washington_Level 08/09/1985 0          17.69     
Lake_Washington_Level 08/10/1985 0          17.67     
Lake_Washington_Level 08/11/1985 0          17.65     
Lake_Washington_Level 08/12/1985 0          17.63     
Lake_Washington_Level 08/13/1985 0          17.59     
Lake_Washington_Level 08/14/1985 0          17.59     
Lake_Washington_Level 08/15/1985 0          17.58     
Lake_Washington_Level 08/16/1985 0          17.55     
Lake_Washington_Level 08/17/1985 0          17.52     
Lake_Washington_Level 08/18/1985 0          17.51     
Lake_Washington_Level 08/19/1985 0          17.46     
Lake_Washington_Level 08/20/1985 0          17.43     
Lake_Washington_Level 08/21/1985 0          17.38     
Lake_Washington_Level 08/22/1985 0          17.35     
Lake_Washington_Level 08/23/1985 0          17.35     
Lake_Washington_Level 08/24/1985 0          17.3      
Lake_Washington_Level 08/25/1985 0          17.26     
Lake_Washington_Level 08/26/1985 0          17.28     
Lake_Washington_Level 08/27/1985 0          17.23     
Lake_Washington_Level 08/28/1985 0          17.19     
Lake_Washington_Level 08/29/1985 0          17.19     
Lake_Washington_Level 08/30/1985 0          17.15     
Lake_Washington_Level 08/31/1985 0          17.13     
Lake_Washington_Level 09/01/1985 0          17.09     
Lake_Washington_Level 09/02/1985 0          17.05     
Lake_Washington_Level 09/03/1985 0          17.05     
Lake_Washington_Level 09/04/1985 0          17.03     
Lake_Washington_Level 09/05/1985 0          16.98     
Lake_Washington_Level 09/06/1985 0          16.98     
Lake_Washington_Level 09/07/1985 0          16.95     
Lake_Washington_Level 09/08/1985 0          16.92     
Lake_Washington_Level 09/09/1985 0          16.94     
Lake_Washington_Level 09/10/1985 0          16.95     
Lake_Washington_Level 09/11/1985 0          16.97     
Lake_Washington_Level 09/12/1985 0          16.95     
Lake_Washington_Level 09/13/1985 0          16.92     
Lake_Washington_Level 09/14/1985 0          16.92     
Lake_Washington_Level 09/15/1985 0          16.9      
Lake_Washington_Level 09/16/1985 0          16.89     
Lake_Washington_Level 09/17/1985 0          17        
Lake_Washington_Level 09/18/1985 0          16.98     
Lake_Washington_Level 09/19/1985 0          16.98     
Lake_Washington_Level 09/20/1985 0          16.94     
Lake_Washington_Level 09/21/1985 0          16.94     
Lake_Washington_Level 09/22/1985 0          16.94     
Lake_Washington_Level 09/23/1985 0          16.93     
Lake_Washington_Level 09/24/1985 0          16.91     
Lake_Washington_Level 09/25/1985 0          16.9      
Lake_Washington_Level 09/26/1985 0          16.89     
Lake_Washington_Level 09/27/1985 0          16.89     
Lake_Washington_Level 09/28/1985 0          16.87     
Lake_Washington_Level 09/29/1985 0          16.87     
Lake_Washington_Level 09/30/1985 0          16.84     
Lake_Washington_Level 10/01/1985 0          16.83     
Lake_Washington_Level 10/02/1985 0          16.83     
Lake_Washington_Level 10/03/1985 0          16.82     
Lake_Washington_Level 10/04/1985 0          16.81     
Lake_Washington_Level 10/05/1985 0          16.79     
Lake_Washington_Level 10/06/1985 0          16.78     
Lake_Washington_Level 10/07/1985 0          16.79     
Lake_Washington_Level 10/08/1985 0          16.78     
Lake_Washington_Level 10/09/1985 0          16.76     
Lake_Washington_Level 10/10/1985 0          16.75     
Lake_Washington_Level 10/11/1985 0          16.72     
Lake_Washington_Level 10/12/1985 0          16.74     
Lake_Washington_Level 10/13/1985 0          16.74     
Lake_Washington_Level 10/14/1985 0          16.75     
Lake_Washington_Level 10/15/1985 0          16.73     
Lake_Washington_Level 10/16/1985 0          16.77     
Lake_Washington_Level 10/17/1985 0          16.79     
Lake_Washington_Level 10/18/1985 0          16.78     
Lake_Washington_Level 10/19/1985 0          16.78     
Lake_Washington_Level 10/20/1985 0          16.89     
Lake_Washington_Level 10/21/1985 0          16.92     
Lake_Washington_Level 10/22/1985 0          17        
Lake_Washington_Level 10/23/1985 0          17.06     
Lake_Washington_Level 10/24/1985 0          17.15     
Lake_Washington_Level 10/25/1985 0          17.35     
Lake_Washington_Level 10/26/1985 0          17.3      
Lake_Washington_Level 10/27/1985 0          17.29     
Lake_Washington_Level 10/28/1985 0          17.25     
Lake_Washington_Level 10/29/1985 0          17.3      
Lake_Washington_Level 10/30/1985 0          17.2      
Lake_Washington_Level 10/31/1985 0          17.2      
Lake_Washington_Level 11/01/1985 0          17.15     
Lake_Washington_Level 11/02/1985 0          17.16     
Lake_Washington_Level 11/03/1985 0          17.18     
Lake_Washington_Level 11/04/1985 0          17.18     
Lake_Washington_Level 11/05/1985 0          17.17     
Lake_Washington_Level 11/06/1985 0          17.12     
Lake_Washington_Level 11/07/1985 0          17.08     
Lake_Washington_Level 11/08/1985 0          17.13     
Lake_Washington_Level 11/09/1985 0          17.07     
Lake_Washington_Level 11/10/1985 0          17.03     
Lake_Washington_Level 11/11/1985 0          17.1      
Lake_Washington_Level 11/12/1985 0          17.04     
Lake_Washington_Level 11/13/1985 0          17.04     
Lake_Washington_Level 11/14/1985 0          16.93     
Lake_Washington_Level 11/15/1985 0          17.03     
Lake_Washington_Level 11/16/1985 0          16.94     
Lake_Washington_Level 11/17/1985 0          16.92     
Lake_Washington_Level 11/18/1985 0          16.93     
Lake_Washington_Level 11/19/1985 0          16.91     
Lake_Washington_Level 11/20/1985 0          16.9      
Lake_Washington_Level 11/21/1985 0          16.91     
Lake_Washington_Level 11/22/1985 0          16.89     
Lake_Washington_Level 11/23/1985 0          16.85     
Lake_Washington_Level 11/24/1985 0          16.86     
Lake_Washington_Level 11/25/1985 0          16.81     
Lake_Washington_Level 11/26/1985 0          16.79     
Lake_Washington_Level 11/27/1985 0          16.84     
Lake_Washington_Level 11/28/1985 0          16.79     
Lake_Washington_Level 11/29/1985 0          16.81     
Lake_Washington_Level 11/30/1985 0          16.78     
Lake_Washington_Level 12/01/1985 0          16.75     
Lake_Washington_Level 12/02/1985 0          16.75     
Lake_Washington_Level 12/03/1985 0          16.8      
Lake_Washington_Level 12/04/1985 0          16.75     
Lake_Washington_Level 12/05/1985 0          16.76     
Lake_Washington_Level 12/06/1985 0          16.75     
Lake_Washington_Level 12/07/1985 0          16.77     
Lake_Washington_Level 12/08/1985 0          16.76     
Lake_Washington_Level 12/09/1985 0          16.76     
Lake_Washington_Level 12/10/1985 0          16.76     
Lake_Washington_Level 12/11/1985 0          16.77     
Lake_Washington_Level 12/12/1985 0          16.75     
Lake_Washington_Level 12/13/1985 0          16.75     
Lake_Washington_Level 12/14/1985 0          16.78     
Lake_Washington_Level 12/15/1985 0          16.77     
Lake_Washington_Level 12/16/1985 0          16.75     
Lake_Washington_Level 12/17/1985 0          16.75     
Lake_Washington_Level 12/18/1985 0          16.75     
Lake_Washington_Level 12/19/1985 0          16.75     
Lake_Washington_Level 12/20/1985 0          16.75     
Lake_Washington_Level 12/21/1985 0          16.76     
Lake_Washington_Level 12/22/1985 0          16.76     
Lake_Washington_Level 12/23/1985 0          16.75     
Lake_Washington_Level 12/24/1985 0          16.75     
Lake_Washington_Level 12/25/1985 0          16.75     
Lake_Washington_Level 12/26/1985 0          16.75     
Lake_Washington_Level 12/27/1985 0          16.75     
Lake_Washington_Level 12/28/1985 0          16.77     
Lake_Washington_Level 12/29/1985 0          16.79     
Lake_Washington_Level 12/30/1985 0          16.75     
Lake_Washington_Level 12/31/1985 0          16.75     
Lake_Washington_Level 01/01/1986 0          16.75     
Lake_Washington_Level 01/02/1986 0          16.75     
Lake_Washington_Level 01/03/1986 0          16.77     
Lake_Washington_Level 01/04/1986 0          16.77     
Lake_Washington_Level 01/05/1986 0          16.78     
Lake_Washington_Level 01/06/1986 0          16.75     
Lake_Washington_Level 01/07/1986 0          16.75     
Lake_Washington_Level 01/08/1986 0          16.75     
Lake_Washington_Level 01/09/1986 0          16.75     
Lake_Washington_Level 01/10/1986 0          16.75     
Lake_Washington_Level 01/11/1986 0          16.76     
Lake_Washington_Level 01/12/1986 0          16.79     
Lake_Washington_Level 01/13/1986 0          16.75     
Lake_Washington_Level 01/14/1986 0          16.75     
Lake_Washington_Level 01/15/1986 0          16.75     
Lake_Washington_Level 01/16/1986 0          16.75     
Lake_Washington_Level 01/17/1986 0          16.75     
Lake_Washington_Level 01/18/1986 0          16.86     
Lake_Washington_Level 01/19/1986 0          16.99     
Lake_Washington_Level 01/20/1986 0          16.89     
Lake_Washington_Level 01/21/1986 0          16.81     
Lake_Washington_Level 01/22/1986 0          16.79     
Lake_Washington_Level 01/23/1986 0          16.81     
Lake_Washington_Level 01/24/1986 0          16.76     
Lake_Washington_Level 01/25/1986 0          16.77     
Lake_Washington_Level 01/26/1986 0          16.78     
Lake_Washington_Level 01/27/1986 0          16.78     
Lake_Washington_Level 01/28/1986 0          16.78     
Lake_Washington_Level 01/29/1986 0          16.8      
Lake_Washington_Level 01/30/1986 0          16.77     
Lake_Washington_Level 01/31/1986 0          16.76     
Lake_Washington_Level 02/01/1986 0          16.78     
Lake_Washington_Level 02/02/1986 0          16.74     
Lake_Washington_Level 02/03/1986 0          16.78     
Lake_Washington_Level 02/04/1986 0          16.76     
Lake_Washington_Level 02/05/1986 0          16.79     
Lake_Washington_Level 02/06/1986 0          16.78     
Lake_Washington_Level 02/07/1986 0          16.79     
Lake_Washington_Level 02/08/1986 0          16.77     
Lake_Washington_Level 02/09/1986 0          16.81     
Lake_Washington_Level 02/10/1986 0          16.77     
Lake_Washington_Level 02/11/1986 0          16.76     
Lake_Washington_Level 02/12/1986 0          16.76     
Lake_Washington_Level 02/13/1986 0          16.76     
Lake_Washington_Level 02/14/1986 0          16.79     
Lake_Washington_Level 02/15/1986 0          16.8      
Lake_Washington_Level 02/16/1986 0          16.76     
Lake_Washington_Level 02/17/1986 0          16.79     
Lake_Washington_Level 02/18/1986 0          16.84     
Lake_Washington_Level 02/19/1986 0          16.88     
Lake_Washington_Level 02/20/1986 0          16.9      
Lake_Washington_Level 02/21/1986 0          16.9      
Lake_Washington_Level 02/22/1986 0          16.93     
Lake_Washington_Level 02/23/1986 0          16.98     
Lake_Washington_Level 02/24/1986 0          17        
Lake_Washington_Level 02/25/1986 0          16.98     
Lake_Washington_Level 02/26/1986 0          17        
Lake_Washington_Level 02/27/1986 0          17.1      
Lake_Washington_Level 02/28/1986 0          17.06     
Lake_Washington_Level 03/01/1986 0          17.11     
Lake_Washington_Level 03/02/1986 0          17.18     
Lake_Washington_Level 03/03/1986 0          17.19     
Lake_Washington_Level 03/04/1986 0          17.19     
Lake_Washington_Level 03/05/1986 0          17.24     
Lake_Washington_Level 03/06/1986 0          17.25     
Lake_Washington_Level 03/07/1986 0          17.28     
Lake_Washington_Level 03/08/1986 0          17.27     
Lake_Washington_Level 03/09/1986 0          17.3      
Lake_Washington_Level 03/10/1986 0          17.35     
Lake_Washington_Level 03/11/1986 0          17.38     
Lake_Washington_Level 03/12/1986 0          17.37     
Lake_Washington_Level 03/13/1986 0          17.43     
Lake_Washington_Level 03/14/1986 0          17.45     
Lake_Washington_Level 03/15/1986 0          17.5      
Lake_Washington_Level 03/16/1986 0          17.5      
Lake_Washington_Level 03/17/1986 0          17.51     
Lake_Washington_Level 03/18/1986 0          17.51     
Lake_Washington_Level 03/19/1986 0          17.55     
Lake_Washington_Level 03/20/1986 0          17.58     
Lake_Washington_Level 03/21/1986 0          17.61     
Lake_Washington_Level 03/22/1986 0          17.61     
Lake_Washington_Level 03/23/1986 0          17.66     
Lake_Washington_Level 03/24/1986 0          17.66     
Lake_Washington_Level 03/25/1986 0          17.64     
Lake_Washington_Level 03/26/1986 0          17.7      
Lake_Washington_Level 03/27/1986 0          17.75     
Lake_Washington_Level 03/28/1986 0          17.81     
Lake_Washington_Level 03/29/1986 0          17.75     
Lake_Washington_Level 03/30/1986 0          17.82     
Lake_Washington_Level 03/31/1986 0          17.88     
Lake_Washington_Level 04/01/1986 0          17.9      
Lake_Washington_Level 04/02/1986 0          17.91     
Lake_Washington_Level 04/03/1986 0          17.95     
Lake_Washington_Level 04/04/1986 0          17.93     
Lake_Washington_Level 04/05/1986 0          18.06     
Lake_Washington_Level 04/06/1986 0          18        
Lake_Washington_Level 04/07/1986 0          18.05     
Lake_Washington_Level 04/08/1986 0          18.05     
Lake_Washington_Level 04/09/1986 0          18.08     
Lake_Washington_Level 04/10/1986 0          18.07     
Lake_Washington_Level 04/11/1986 0          18.13     
Lake_Washington_Level 04/12/1986 0          18.13     
Lake_Washington_Level 04/13/1986 0          18.18     
Lake_Washington_Level 04/14/1986 0          18.18     
Lake_Washington_Level 04/15/1986 0          18.23     
Lake_Washington_Level 04/16/1986 0          18.25     
Lake_Washington_Level 04/17/1986 0          18.25     
Lake_Washington_Level 04/18/1986 0          18.31     
Lake_Washington_Level 04/19/1986 0          18.3      
Lake_Washington_Level 04/20/1986 0          18.35     
Lake_Washington_Level 04/21/1986 0          18.36     
Lake_Washington_Level 04/22/1986 0          18.35     
Lake_Washington_Level 04/23/1986 0          18.45     
Lake_Washington_Level 04/24/1986 0          18.52     
Lake_Washington_Level 04/25/1986 0          18.55     
Lake_Washington_Level 04/26/1986 0          18.59     
Lake_Washington_Level 04/27/1986 0          18.6      
Lake_Washington_Level 04/28/1986 0          18.6      
Lake_Washington_Level 04/29/1986 0          18.6      
Lake_Washington_Level 04/30/1986 0          18.54     
Lake_Washington_Level 05/01/1986 0          18.58     
Lake_Washington_Level 05/02/1986 0          18.53     
Lake_Washington_Level 05/03/1986 0          18.6      
Lake_Washington_Level 05/04/1986 0          18.6      
Lake_Washington_Level 05/05/1986 0          18.55     
Lake_Washington_Level 05/06/1986 0          18.55     
Lake_Washington_Level 05/07/1986 0          18.6      
Lake_Washington_Level 05/08/1986 0          18.6      
Lake_Washington_Level 05/09/1986 0          18.6      
Lake_Washington_Level 05/10/1986 0          18.6      
Lake_Washington_Level 05/11/1986 0          18.6      
Lake_Washington_Level 05/12/1986 0          18.58     
Lake_Washington_Level 05/13/1986 0          18.6      
Lake_Washington_Level 05/14/1986 0          18.6      
Lake_Washington_Level 05/15/1986 0          18.54     
Lake_Washington_Level 05/16/1986 0          18.6      
Lake_Washington_Level 05/17/1986 0          18.56     
Lake_Washington_Level 05/18/1986 0          18.6      
Lake_Washington_Level 05/19/1986 0          18.6      
Lake_Washington_Level 05/20/1986 0          18.55     
Lake_Washington_Level 05/21/1986 0          18.6      
Lake_Washington_Level 05/22/1986 0          18.6      
Lake_Washington_Level 05/23/1986 0          18.6      
Lake_Washington_Level 05/24/1986 0          18.6      
Lake_Washington_Level 05/25/1986 0          18.6      
Lake_Washington_Level 05/26/1986 0          18.6      
Lake_Washington_Level 05/27/1986 0          18.6      
Lake_Washington_Level 05/28/1986 0          18.6      
Lake_Washington_Level 05/29/1986 0          18.6      
Lake_Washington_Level 05/30/1986 0          18.6      
Lake_Washington_Level 05/31/1986 0          18.6      
Lake_Washington_Level 06/01/1986 0          18.6      
Lake_Washington_Level 06/02/1986 0          18.6      
Lake_Washington_Level 06/03/1986 0          18.6      
Lake_Washington_Level 06/04/1986 0          18.6      
Lake_Washington_Level 06/05/1986 0          18.6      
Lake_Washington_Level 06/06/1986 0          18.6      
Lake_Washington_Level 06/07/1986 0          18.6      
Lake_Washington_Level 06/08/1986 0          18.6      
Lake_Washington_Level 06/09/1986 0          18.59     
Lake_Washington_Level 06/10/1986 0          18.59     
Lake_Washington_Level 06/11/1986 0          18.58     
Lake_Washington_Level 06/12/1986 0          18.58     
Lake_Washington_Level 06/13/1986 0          18.58     
Lake_Washington_Level 06/14/1986 0          18.6      
Lake_Washington_Level 06/15/1986 0          18.6      
Lake_Washington_Level 06/16/1986 0          18.6      
Lake_Washington_Level 06/17/1986 0          18.59     
Lake_Washington_Level 06/18/1986 0          18.6      
Lake_Washington_Level 06/19/1986 0          18.6      
Lake_Washington_Level 06/20/1986 0          18.6      
Lake_Washington_Level 06/21/1986 0          18.6      
Lake_Washington_Level 06/22/1986 0          18.54     
Lake_Washington_Level 06/23/1986 0          18.54     
Lake_Washington_Level 06/24/1986 0          18.55     
Lake_Washington_Level 06/25/1986 0          18.55     
Lake_Washington_Level 06/26/1986 0          18.55     
Lake_Washington_Level 06/27/1986 0          18.53     
Lake_Washington_Level 06/28/1986 0          18.49     
Lake_Washington_Level 06/29/1986 0          18.51     
Lake_Washington_Level 06/30/1986 0          18.54     
Lake_Washington_Level 07/01/1986 0          18.51     
Lake_Washington_Level 07/02/1986 0          18.51     
Lake_Washington_Level 07/03/1986 0          18.49     
Lake_Washington_Level 07/04/1986 0          18.49     
Lake_Washington_Level 07/05/1986 0          18.45     
Lake_Washington_Level 07/06/1986 0          18.47     
Lake_Washington_Level 07/07/1986 0          18.45     
Lake_Washington_Level 07/08/1986 0          18.44     
Lake_Washington_Level 07/09/1986 0          18.41     
Lake_Washington_Level 07/10/1986 0          18.4      
Lake_Washington_Level 07/11/1986 0          18.41     
Lake_Washington_Level 07/12/1986 0          18.36     
Lake_Washington_Level 07/13/1986 0          18.35     
Lake_Washington_Level 07/14/1986 0          18.33     
Lake_Washington_Level 07/15/1986 0          18.3      
Lake_Washington_Level 07/16/1986 0          18.27     
Lake_Washington_Level 07/17/1986 0          18.35     
Lake_Washington_Level 07/18/1986 0          18.38     
Lake_Washington_Level 07/19/1986 0          18.35     
Lake_Washington_Level 07/20/1986 0          18.31     
Lake_Washington_Level 07/21/1986 0          18.32     
Lake_Washington_Level 07/22/1986 0          18.32     
Lake_Washington_Level 07/23/1986 0          18.3      
Lake_Washington_Level 07/24/1986 0          18.26     
Lake_Washington_Level 07/25/1986 0          18.24     
Lake_Washington_Level 07/26/1986 0          18.25     
Lake_Washington_Level 07/27/1986 0          18.2      
Lake_Washington_Level 07/28/1986 0          18.15     
Lake_Washington_Level 07/29/1986 0          18.12     
Lake_Washington_Level 07/30/1986 0          18.12     
Lake_Washington_Level 07/31/1986 0          18.05     
Lake_Washington_Level 08/01/1986 0          18.02     
Lake_Washington_Level 08/02/1986 0          18        
Lake_Washington_Level 08/03/1986 0          17.99     
Lake_Washington_Level 08/04/1986 0          17.98     
Lake_Washington_Level 08/05/1986 0          17.95     
Lake_Washington_Level 08/06/1986 0          17.93     
Lake_Washington_Level 08/07/1986 0          17.91     
Lake_Washington_Level 08/08/1986 0          17.87     
Lake_Washington_Level 08/09/1986 0          17.87     
Lake_Washington_Level 08/10/1986 0          17.85     
Lake_Washington_Level 08/11/1986 0          17.8      
Lake_Washington_Level 08/12/1986 0          17.78     
Lake_Washington_Level 08/13/1986 0          17.75     
Lake_Washington_Level 08/14/1986 0          17.73     
Lake_Washington_Level 08/15/1986 0          17.69     
Lake_Washington_Level 08/16/1986 0          17.62     
Lake_Washington_Level 08/17/1986 0          17.61     
Lake_Washington_Level 08/18/1986 0          17.61     
Lake_Washington_Level 08/19/1986 0          17.59     
Lake_Washington_Level 08/20/1986 0          17.57     
Lake_Washington_Level 08/21/1986 0          17.52     
Lake_Washington_Level 08/22/1986 0          17.51     
Lake_Washington_Level 08/23/1986 0          17.48     
Lake_Washington_Level 08/24/1986 0          17.45     
Lake_Washington_Level 08/25/1986 0          17.39     
Lake_Washington_Level 08/26/1986 0          17.35     
Lake_Washington_Level 08/27/1986 0          17.35     
Lake_Washington_Level 08/28/1986 0          17.34     
Lake_Washington_Level 08/29/1986 0          17.33     
Lake_Washington_Level 08/30/1986 0          17.29     
Lake_Washington_Level 08/31/1986 0          17.26     
Lake_Washington_Level 09/01/1986 0          17.21     
Lake_Washington_Level 09/02/1986 0          17.21     
Lake_Washington_Level 09/03/1986 0          17.18     
Lake_Washington_Level 09/04/1986 0          17.18     
Lake_Washington_Level 09/05/1986 0          17.18     
Lake_Washington_Level 09/06/1986 0          17.12     
Lake_Washington_Level 09/07/1986 0          17.1      
Lake_Washington_Level 09/08/1986 0          17.06     
Lake_Washington_Level 09/09/1986 0          17.04     
Lake_Washington_Level 09/10/1986 0          17.01     
Lake_Washington_Level 09/11/1986 0          17.02     
Lake_Washington_Level 09/12/1986 0          16.95     
Lake_Washington_Level 09/13/1986 0          16.92     
Lake_Washington_Level 09/14/1986 0          16.93     
Lake_Washington_Level 09/15/1986 0          16.91     
Lake_Washington_Level 09/16/1986 0          16.88     
Lake_Washington_Level 09/17/1986 0          16.85     
Lake_Washington_Level 09/18/1986 0          16.89     
Lake_Washington_Level 09/19/1986 0          16.89     
Lake_Washington_Level 09/20/1986 0          16.88     
Lake_Washington_Level 09/21/1986 0          16.86     
Lake_Washington_Level 09/22/1986 0          16.84     
Lake_Washington_Level 09/23/1986 0          16.88     
Lake_Washington_Level 09/24/1986 0          16.9      
Lake_Washington_Level 09/25/1986 0          16.88     
Lake_Washington_Level 09/26/1986 0          16.91     
Lake_Washington_Level 09/27/1986 0          16.91     
Lake_Washington_Level 09/28/1986 0          16.91     
Lake_Washington_Level 09/29/1986 0          16.89     
Lake_Washington_Level 09/30/1986 0          16.95     
Lake_Washington_Level 10/01/1986 0          16.93     
Lake_Washington_Level 10/02/1986 0          16.93     
Lake_Washington_Level 10/03/1986 0          16.93     
Lake_Washington_Level 10/04/1986 0          16.92     
Lake_Washington_Level 10/05/1986 0          16.92     
Lake_Washington_Level 10/06/1986 0          16.92     
Lake_Washington_Level 10/07/1986 0          16.89     
Lake_Washington_Level 10/08/1986 0          16.9      
Lake_Washington_Level 10/09/1986 0          16.91     
Lake_Washington_Level 10/10/1986 0          16.92     
Lake_Washington_Level 10/11/1986 0          16.93     
Lake_Washington_Level 10/12/1986 0          16.95     
Lake_Washington_Level 10/13/1986 0          16.95     
Lake_Washington_Level 10/14/1986 0          16.96     
Lake_Washington_Level 10/15/1986 0          16.96     
Lake_Washington_Level 10/16/1986 0          16.98     
Lake_Washington_Level 10/17/1986 0          16.98     
Lake_Washington_Level 10/18/1986 0          16.98     
Lake_Washington_Level 10/19/1986 0          16.99     
Lake_Washington_Level 10/20/1986 0          17.01     
Lake_Washington_Level 10/21/1986 0          17.01     
Lake_Washington_Level 10/22/1986 0          17.02     
Lake_Washington_Level 10/23/1986 0          17.03     
Lake_Washington_Level 10/24/1986 0          17.03     
Lake_Washington_Level 10/25/1986 0          17.09     
Lake_Washington_Level 10/26/1986 0          17.25     
Lake_Washington_Level 10/27/1986 0          17.3      
Lake_Washington_Level 10/28/1986 0          17.18     
Lake_Washington_Level 10/29/1986 0          17.16     
Lake_Washington_Level 10/30/1986 0          17.25     
Lake_Washington_Level 10/31/1986 0          17.25     
Lake_Washington_Level 11/01/1986 0          17.24     
Lake_Washington_Level 11/02/1986 0          17.23     
Lake_Washington_Level 11/03/1986 0          17.25     
Lake_Washington_Level 11/04/1986 0          17.22     
Lake_Washington_Level 11/05/1986 0          17.21     
Lake_Washington_Level 11/06/1986 0          17.21     
Lake_Washington_Level 11/07/1986 0          17.13     
Lake_Washington_Level 11/08/1986 0          17.18     
Lake_Washington_Level 11/09/1986 0          17.1      
Lake_Washington_Level 11/10/1986 0          17.06     
Lake_Washington_Level 11/11/1986 0          17.09     
Lake_Washington_Level 11/12/1986 0          17.04     
Lake_Washington_Level 11/13/1986 0          17.02     
Lake_Washington_Level 11/14/1986 0          17.02     
Lake_Washington_Level 11/15/1986 0          17        
Lake_Washington_Level 11/16/1986 0          16.97     
Lake_Washington_Level 11/17/1986 0          16.95     
Lake_Washington_Level 11/18/1986 0          16.95     
Lake_Washington_Level 11/19/1986 0          16.94     
Lake_Washington_Level 11/20/1986 0          16.95     
Lake_Washington_Level 11/21/1986 0          16.89     
Lake_Washington_Level 11/22/1986 0          16.89     
Lake_Washington_Level 11/23/1986 0          16.9      
Lake_Washington_Level 11/24/1986 0          16.93     
Lake_Washington_Level 11/25/1986 0          16.85     
Lake_Washington_Level 11/26/1986 0          16.8      
Lake_Washington_Level 11/27/1986 0          16.81     
Lake_Washington_Level 11/28/1986 0          16.8      
Lake_Washington_Level 11/29/1986 0          16.75     
Lake_Washington_Level 11/30/1986 0          16.75     
Lake_Washington_Level 12/01/1986 0          16.76     
Lake_Washington_Level 12/02/1986 0          16.77     
Lake_Washington_Level 12/03/1986 0          16.78     
Lake_Washington_Level 12/04/1986 0          16.78     
Lake_Washington_Level 12/05/1986 0          16.75     
Lake_Washington_Level 12/06/1986 0          16.76     
Lake_Washington_Level 12/07/1986 0          16.75     
Lake_Washington_Level 12/08/1986 0          16.76     
Lake_Washington_Level 12/09/1986 0          16.77     
Lake_Washington_Level 12/10/1986 0          16.78     
Lake_Washington_Level 12/11/1986 0          16.75     
Lake_Washington_Level 12/12/1986 0          16.78     
Lake_Washington_Level 12/13/1986 0          16.76     
Lake_Washington_Level 12/14/1986 0          16.75     
Lake_Washington_Level 12/15/1986 0          16.77     
Lake_Washington_Level 12/16/1986 0          16.78     
Lake_Washington_Level 12/17/1986 0          16.76     
Lake_Washington_Level 12/18/1986 0          16.79     
Lake_Washington_Level 12/19/1986 0          16.75     
Lake_Washington_Level 12/20/1986 0          16.76     
Lake_Washington_Level 12/21/1986 0          16.75     
Lake_Washington_Level 12/22/1986 0          16.75     
Lake_Washington_Level 12/23/1986 0          16.75     
Lake_Washington_Level 12/24/1986 0          16.75     
Lake_Washington_Level 12/25/1986 0          16.75     
Lake_Washington_Level 12/26/1986 0          16.75     
Lake_Washington_Level 12/27/1986 0          16.76     
Lake_Washington_Level 12/28/1986 0          16.75     
Lake_Washington_Level 12/29/1986 0          16.78     
Lake_Washington_Level 12/30/1986 0          16.75     
Lake_Washington_Level 12/31/1986 0          16.75     
Lake_Washington_Level 01/01/1987 0          16.75     
Lake_Washington_Level 01/02/1987 0          16.75     
Lake_Washington_Level 01/03/1987 0          16.77     
Lake_Washington_Level 01/04/1987 0          16.76     
Lake_Washington_Level 01/05/1987 0          16.75     
Lake_Washington_Level 01/06/1987 0          16.75     
Lake_Washington_Level 01/07/1987 0          16.75     
Lake_Washington_Level 01/08/1987 0          16.76     
Lake_Washington_Level 01/09/1987 0          16.75     
Lake_Washington_Level 01/10/1987 0          16.75     
Lake_Washington_Level 01/11/1987 0          16.76     
Lake_Washington_Level 01/12/1987 0          16.76     
Lake_Washington_Level 01/13/1987 0          16.75     
Lake_Washington_Level 01/14/1987 0          16.79     
Lake_Washington_Level 01/15/1987 0          16.77     
Lake_Washington_Level 01/16/1987 0          16.76     
Lake_Washington_Level 01/17/1987 0          16.76     
Lake_Washington_Level 01/18/1987 0          16.75     
Lake_Washington_Level 01/19/1987 0          16.76     
Lake_Washington_Level 01/20/1987 0          16.78     
Lake_Washington_Level 01/21/1987 0          16.75     
Lake_Washington_Level 01/22/1987 0          16.77     
Lake_Washington_Level 01/23/1987 0          16.76     
Lake_Washington_Level 01/24/1987 0          16.76     
Lake_Washington_Level 01/25/1987 0          16.75     
Lake_Washington_Level 01/26/1987 0          16.76     
Lake_Washington_Level 01/27/1987 0          16.76     
Lake_Washington_Level 01/28/1987 0          16.76     
Lake_Washington_Level 01/29/1987 0          16.76     
Lake_Washington_Level 01/30/1987 0          16.75     
Lake_Washington_Level 01/31/1987 0          16.77     
Lake_Washington_Level 02/01/1987 0          16.78     
Lake_Washington_Level 02/02/1987 0          16.79     
Lake_Washington_Level 02/03/1987 0          16.78     
Lake_Washington_Level 02/04/1987 0          16.75     
Lake_Washington_Level 02/05/1987 0          16.77     
Lake_Washington_Level 02/06/1987 0          16.76     
Lake_Washington_Level 02/07/1987 0          16.78     
Lake_Washington_Level 02/08/1987 0          16.76     
Lake_Washington_Level 02/09/1987 0          16.78     
Lake_Washington_Level 02/10/1987 0          16.77     
Lake_Washington_Level 02/11/1987 0          16.76     
Lake_Washington_Level 02/12/1987 0          16.76     
Lake_Washington_Level 02/13/1987 0          16.78     
Lake_Washington_Level 02/14/1987 0          16.75     
Lake_Washington_Level 02/15/1987 0          16.78     
Lake_Washington_Level 02/16/1987 0          16.76     
Lake_Washington_Level 02/17/1987 0          16.8      
Lake_Washington_Level 02/18/1987 0          16.8      
Lake_Washington_Level 02/19/1987 0          16.81     
Lake_Washington_Level 02/20/1987 0          16.89     
Lake_Washington_Level 02/21/1987 0          16.91     
Lake_Washington_Level 02/22/1987 0          16.93     
Lake_Washington_Level 02/23/1987 0          16.95     
Lake_Washington_Level 02/24/1987 0          17.01     
Lake_Washington_Level 02/25/1987 0          17        
Lake_Washington_Level 02/26/1987 0          17.03     
Lake_Washington_Level 02/27/1987 0          17.05     
Lake_Washington_Level 02/28/1987 0          17.07     
Lake_Washington_Level 03/01/1987 0          17.08     
Lake_Washington_Level 03/02/1987 0          17.15     
Lake_Washington_Level 03/03/1987 0          17.21     
Lake_Washington_Level 03/04/1987 0          17.18     
Lake_Washington_Level 03/05/1987 0          17.21     
Lake_Washington_Level 03/06/1987 0          17.25     
Lake_Washington_Level 03/07/1987 0          17.27     
Lake_Washington_Level 03/08/1987 0          17.31     
Lake_Washington_Level 03/09/1987 0          17.33     
Lake_Washington_Level 03/10/1987 0          17.35     
Lake_Washington_Level 03/11/1987 0          17.39     
Lake_Washington_Level 03/12/1987 0          17.42     
Lake_Washington_Level 03/13/1987 0          17.42     
Lake_Washington_Level 03/14/1987 0          17.45     
Lake_Washington_Level 03/15/1987 0          17.52     
Lake_Washington_Level 03/16/1987 0          17.48     
Lake_Washington_Level 03/17/1987 0          17.5      
Lake_Washington_Level 03/18/1987 0          17.5      
Lake_Washington_Level 03/19/1987 0          17.55     
Lake_Washington_Level 03/20/1987 0          17.63     
Lake_Washington_Level 03/21/1987 0          17.57     
Lake_Washington_Level 03/22/1987 0          17.6      
Lake_Washington_Level 03/23/1987 0          17.65     
Lake_Washington_Level 03/24/1987 0          17.65     
Lake_Washington_Level 03/25/1987 0          17.7      
Lake_Washington_Level 03/26/1987 0          17.7      
Lake_Washington_Level 03/27/1987 0          17.75     
Lake_Washington_Level 03/28/1987 0          17.76     
Lake_Washington_Level 03/29/1987 0          17.81     
Lake_Washington_Level 03/30/1987 0          17.8      
Lake_Washington_Level 03/31/1987 0          17.8      
Lake_Washington_Level 04/01/1987 0          17.82     
Lake_Washington_Level 04/02/1987 0          17.86     
Lake_Washington_Level 04/03/1987 0          17.9      
Lake_Washington_Level 04/04/1987 0          17.95     
Lake_Washington_Level 04/05/1987 0          17.97     
Lake_Washington_Level 04/06/1987 0          17.95     
Lake_Washington_Level 04/07/1987 0          17.95     
Lake_Washington_Level 04/08/1987 0          18.05     
Lake_Washington_Level 04/09/1987 0          18.05     
Lake_Washington_Level 04/10/1987 0          18.05     
Lake_Washington_Level 04/11/1987 0          18.05     
Lake_Washington_Level 04/12/1987 0          18.11     
Lake_Washington_Level 04/13/1987 0          18.18     
Lake_Washington_Level 04/14/1987 0          18.2      
Lake_Washington_Level 04/15/1987 0          18.16     
Lake_Washington_Level 04/16/1987 0          18.25     
Lake_Washington_Level 04/17/1987 0          18.3      
Lake_Washington_Level 04/18/1987 0          18.3      
Lake_Washington_Level 04/19/1987 0          18.29     
Lake_Washington_Level 04/20/1987 0          18.31     
Lake_Washington_Level 04/21/1987 0          18.36     
Lake_Washington_Level 04/22/1987 0          18.42     
Lake_Washington_Level 04/23/1987 0          18.38     
Lake_Washington_Level 04/24/1987 0          18.39     
Lake_Washington_Level 04/25/1987 0          18.42     
Lake_Washington_Level 04/26/1987 0          18.44     
Lake_Washington_Level 04/27/1987 0          18.47     
Lake_Washington_Level 04/28/1987 0          18.52     
Lake_Washington_Level 04/29/1987 0          18.57     
Lake_Washington_Level 04/30/1987 0          18.6      
Lake_Washington_Level 05/01/1987 0          18.6      
Lake_Washington_Level 05/02/1987 0          18.6      
Lake_Washington_Level 05/03/1987 0          18.56     
Lake_Washington_Level 05/04/1987 0          18.6      
Lake_Washington_Level 05/05/1987 0          18.6      
Lake_Washington_Level 05/06/1987 0          18.6      
Lake_Washington_Level 05/07/1987 0          18.6      
Lake_Washington_Level 05/08/1987 0          18.6      
Lake_Washington_Level 05/09/1987 0          18.6      
Lake_Washington_Level 05/10/1987 0          18.6      
Lake_Washington_Level 05/11/1987 0          18.6      
Lake_Washington_Level 05/12/1987 0          18.6      
Lake_Washington_Level 05/13/1987 0          18.6      
Lake_Washington_Level 05/14/1987 0          18.6      
Lake_Washington_Level 05/15/1987 0          18.6      
Lake_Washington_Level 05/16/1987 0          18.59     
Lake_Washington_Level 05/17/1987 0          18.6      
Lake_Washington_Level 05/18/1987 0          18.6      
Lake_Washington_Level 05/19/1987 0          18.6      
Lake_Washington_Level 05/20/1987 0          18.6      
Lake_Washington_Level 05/21/1987 0          18.6      
Lake_Washington_Level 05/22/1987 0          18.6      
Lake_Washington_Level 05/23/1987 0          18.59     
Lake_Washington_Level 05/24/1987 0          18.59     
Lake_Washington_Level 05/25/1987 0          18.6      
Lake_Washington_Level 05/26/1987 0          18.6      
Lake_Washington_Level 05/27/1987 0          18.6      
Lake_Washington_Level 05/28/1987 0          18.6      
Lake_Washington_Level 05/29/1987 0          18.6      
Lake_Washington_Level 05/30/1987 0          18.75     
Lake_Washington_Level 05/31/1987 0          18.75     
Lake_Washington_Level 06/01/1987 0          18.75     
Lake_Washington_Level 06/02/1987 0          18.75     
Lake_Washington_Level 06/03/1987 0          18.75     
Lake_Washington_Level 06/04/1987 0          18.75     
Lake_Washington_Level 06/05/1987 0          18.75     
Lake_Washington_Level 06/06/1987 0          18.75     
Lake_Washington_Level 06/07/1987 0          18.71     
Lake_Washington_Level 06/08/1987 0          18.71     
Lake_Washington_Level 06/09/1987 0          18.72     
Lake_Washington_Level 06/10/1987 0          18.71     
Lake_Washington_Level 06/11/1987 0          18.74     
Lake_Washington_Level 06/12/1987 0          18.75     
Lake_Washington_Level 06/13/1987 0          18.72     
Lake_Washington_Level 06/14/1987 0          18.75     
Lake_Washington_Level 06/15/1987 0          18.71     
Lake_Washington_Level 06/16/1987 0          18.74     
Lake_Washington_Level 06/17/1987 0          18.74     
Lake_Washington_Level 06/18/1987 0          18.73     
Lake_Washington_Level 06/19/1987 0          18.73     
Lake_Washington_Level 06/20/1987 0          18.7      
Lake_Washington_Level 06/21/1987 0          18.72     
Lake_Washington_Level 06/22/1987 0          18.75     
Lake_Washington_Level 06/23/1987 0          18.75     
Lake_Washington_Level 06/24/1987 0          18.71     
Lake_Washington_Level 06/25/1987 0          18.71     
Lake_Washington_Level 06/26/1987 0          18.7      
Lake_Washington_Level 06/27/1987 0          18.66     
Lake_Washington_Level 06/28/1987 0          18.7      
Lake_Washington_Level 06/29/1987 0          18.7      
Lake_Washington_Level 06/30/1987 0          18.68     
Lake_Washington_Level 07/01/1987 0          18.65     
Lake_Washington_Level 07/02/1987 0          18.65     
Lake_Washington_Level 07/03/1987 0          18.65     
Lake_Washington_Level 07/04/1987 0          18.63     
Lake_Washington_Level 07/05/1987 0          18.6      
Lake_Washington_Level 07/06/1987 0          18.57     
Lake_Washington_Level 07/07/1987 0          18.56     
Lake_Washington_Level 07/08/1987 0          18.57     
Lake_Washington_Level 07/09/1987 0          18.53     
Lake_Washington_Level 07/10/1987 0          18.53     
Lake_Washington_Level 07/11/1987 0          18.5      
Lake_Washington_Level 07/12/1987 0          18.5      
Lake_Washington_Level 07/13/1987 0          18.46     
Lake_Washington_Level 07/14/1987 0          18.42     
Lake_Washington_Level 07/15/1987 0          18.41     
Lake_Washington_Level 07/16/1987 0          18.38     
Lake_Washington_Level 07/17/1987 0          18.34     
Lake_Washington_Level 07/18/1987 0          18.31     
Lake_Washington_Level 07/19/1987 0          18.31     
Lake_Washington_Level 07/20/1987 0          18.28     
Lake_Washington_Level 07/21/1987 0          18.26     
Lake_Washington_Level 07/22/1987 0          18.24     
Lake_Washington_Level 07/23/1987 0          18.22     
Lake_Washington_Level 07/24/1987 0          18.21     
Lake_Washington_Level 07/25/1987 0          18.2      
Lake_Washington_Level 07/26/1987 0          18.16     
Lake_Washington_Level 07/27/1987 0          18.15     
Lake_Washington_Level 07/28/1987 0          18.12     
Lake_Washington_Level 07/29/1987 0          18.1      
Lake_Washington_Level 07/30/1987 0          18.03     
Lake_Washington_Level 07/31/1987 0          18.02     
Lake_Washington_Level 08/01/1987 0          17.97     
Lake_Washington_Level 08/02/1987 0          17.95     
Lake_Washington_Level 08/03/1987 0          17.92     
Lake_Washington_Level 08/04/1987 0          17.88     
Lake_Washington_Level 08/05/1987 0          17.85     
Lake_Washington_Level 08/06/1987 0          17.82     
Lake_Washington_Level 08/07/1987 0          17.81     
Lake_Washington_Level 08/08/1987 0          17.8      
Lake_Washington_Level 08/09/1987 0          17.79     
Lake_Washington_Level 08/10/1987 0          17.76     
Lake_Washington_Level 08/11/1987 0          17.75     
Lake_Washington_Level 08/12/1987 0          17.7      
Lake_Washington_Level 08/13/1987 0          17.71     
Lake_Washington_Level 08/14/1987 0          17.7      
Lake_Washington_Level 08/15/1987 0          17.67     
Lake_Washington_Level 08/16/1987 0          17.65     
Lake_Washington_Level 08/17/1987 0          17.63     
Lake_Washington_Level 08/18/1987 0          17.61     
Lake_Washington_Level 08/19/1987 0          17.59     
Lake_Washington_Level 08/20/1987 0          17.57     
Lake_Washington_Level 08/21/1987 0          17.53     
Lake_Washington_Level 08/22/1987 0          17.51     
Lake_Washington_Level 08/23/1987 0          17.48     
Lake_Washington_Level 08/24/1987 0          17.46     
Lake_Washington_Level 08/25/1987 0          17.48     
Lake_Washington_Level 08/26/1987 0          17.45     
Lake_Washington_Level 08/27/1987 0          17.41     
Lake_Washington_Level 08/28/1987 0          17.38     
Lake_Washington_Level 08/29/1987 0          17.35     
Lake_Washington_Level 08/30/1987 0          17.29     
Lake_Washington_Level 08/31/1987 0          17.32     
Lake_Washington_Level 09/01/1987 0          17.29     
Lake_Washington_Level 09/02/1987 0          17.25     
Lake_Washington_Level 09/03/1987 0          17.25     
Lake_Washington_Level 09/04/1987 0          17.21     
Lake_Washington_Level 09/05/1987 0          17.11     
Lake_Washington_Level 09/06/1987 0          17.15     
Lake_Washington_Level 09/07/1987 0          17.14     
Lake_Washington_Level 09/08/1987 0          17.12     
Lake_Washington_Level 09/09/1987 0          17.08     
Lake_Washington_Level 09/10/1987 0          17.08     
Lake_Washington_Level 09/11/1987 0          17.04     
Lake_Washington_Level 09/12/1987 0          17        
Lake_Washington_Level 09/13/1987 0          16.99     
Lake_Washington_Level 09/14/1987 0          16.95     
Lake_Washington_Level 09/15/1987 0          16.97     
Lake_Washington_Level 09/16/1987 0          16.96     
Lake_Washington_Level 09/17/1987 0          16.94     
Lake_Washington_Level 09/18/1987 0          16.92     
Lake_Washington_Level 09/19/1987 0          16.87     
Lake_Washington_Level 09/20/1987 0          16.87     
Lake_Washington_Level 09/21/1987 0          16.84     
Lake_Washington_Level 09/22/1987 0          16.82     
Lake_Washington_Level 09/23/1987 0          16.79     
Lake_Washington_Level 09/24/1987 0          16.75     
Lake_Washington_Level 09/25/1987 0          16.75     
Lake_Washington_Level 09/26/1987 0          16.73     
Lake_Washington_Level 09/27/1987 0          16.7      
Lake_Washington_Level 09/28/1987 0          16.66     
Lake_Washington_Level 09/29/1987 0          16.63     
Lake_Washington_Level 09/30/1987 0          16.61     
Lake_Washington_Level 10/01/1987 0          16.59     
Lake_Washington_Level 10/02/1987 0          16.58     
Lake_Washington_Level 10/03/1987 0          16.55     
Lake_Washington_Level 10/04/1987 0          16.54     
Lake_Washington_Level 10/05/1987 0          16.51     
Lake_Washington_Level 10/06/1987 0          16.5      
Lake_Washington_Level 10/07/1987 0          16.46     
Lake_Washington_Level 10/08/1987 0          16.45     
Lake_Washington_Level 10/09/1987 0          16.43     
Lake_Washington_Level 10/10/1987 0          16.39     
Lake_Washington_Level 10/11/1987 0          16.37     
Lake_Washington_Level 10/12/1987 0          16.36     
Lake_Washington_Level 10/13/1987 0          16.35     
Lake_Washington_Level 10/14/1987 0          16.33     
Lake_Washington_Level 10/15/1987 0          16.33     
Lake_Washington_Level 10/16/1987 0          16.31     
Lake_Washington_Level 10/17/1987 0          16.27     
Lake_Washington_Level 10/18/1987 0          16.28     
Lake_Washington_Level 10/19/1987 0          16.27     
Lake_Washington_Level 10/20/1987 0          16.25     
Lake_Washington_Level 10/21/1987 0          16.26     
Lake_Washington_Level 10/22/1987 0          16.24     
Lake_Washington_Level 10/23/1987 0          16.24     
Lake_Washington_Level 10/24/1987 0          16.23     
Lake_Washington_Level 10/25/1987 0          16.23     
Lake_Washington_Level 10/26/1987 0          16.22     
Lake_Washington_Level 10/27/1987 0          16.21     
Lake_Washington_Level 10/28/1987 0          16.19     
Lake_Washington_Level 10/29/1987 0          16.19     
Lake_Washington_Level 10/30/1987 0          16.19     
Lake_Washington_Level 10/31/1987 0          16.2      
Lake_Washington_Level 11/01/1987 0          16.2      
Lake_Washington_Level 11/02/1987 0          16.21     
Lake_Washington_Level 11/03/1987 0          16.2      
Lake_Washington_Level 11/04/1987 0          16.2      
Lake_Washington_Level 11/05/1987 0          16.2      
Lake_Washington_Level 11/06/1987 0          16.22     
Lake_Washington_Level 11/07/1987 0          16.21     
Lake_Washington_Level 11/08/1987 0          16.2      
Lake_Washington_Level 11/09/1987 0          16.23     
Lake_Washington_Level 11/10/1987 0          16.23     
Lake_Washington_Level 11/11/1987 0          16.31     
Lake_Washington_Level 11/12/1987 0          16.34     
Lake_Washington_Level 11/13/1987 0          16.36     
Lake_Washington_Level 11/14/1987 0          16.44     
Lake_Washington_Level 11/15/1987 0          16.45     
Lake_Washington_Level 11/16/1987 0          16.49     
Lake_Washington_Level 11/17/1987 0          16.48     
Lake_Washington_Level 11/18/1987 0          16.48     
Lake_Washington_Level 11/19/1987 0          16.48     
Lake_Washington_Level 11/20/1987 0          16.48     
Lake_Washington_Level 11/21/1987 0          16.51     
Lake_Washington_Level 11/22/1987 0          16.54     
Lake_Washington_Level 11/23/1987 0          16.56     
Lake_Washington_Level 11/24/1987 0          16.59     
Lake_Washington_Level 11/25/1987 0          16.59     
Lake_Washington_Level 11/26/1987 0          16.6      
Lake_Washington_Level 11/27/1987 0          16.6      
Lake_Washington_Level 11/28/1987 0          16.6      
Lake_Washington_Level 11/29/1987 0          16.62     
Lake_Washington_Level 11/30/1987 0          16.62     
Lake_Washington_Level 12/01/1987 0          16.76     
Lake_Washington_Level 12/02/1987 0          16.9      
Lake_Washington_Level 12/03/1987 0          16.88     
Lake_Washington_Level 12/04/1987 0          16.77     
Lake_Washington_Level 12/05/1987 0          16.84     
Lake_Washington_Level 12/06/1987 0          16.79     
Lake_Washington_Level 12/07/1987 0          16.77     
Lake_Washington_Level 12/08/1987 0          16.8      
Lake_Washington_Level 12/09/1987 0          16.78     
Lake_Washington_Level 12/10/1987 0          16.82     
Lake_Washington_Level 12/11/1987 0          16.76     
Lake_Washington_Level 12/12/1987 0          16.76     
Lake_Washington_Level 12/13/1987 0          16.76     
Lake_Washington_Level 12/14/1987 0          16.77     
Lake_Washington_Level 12/15/1987 0          16.77     
Lake_Washington_Level 12/16/1987 0          16.75     
Lake_Washington_Level 12/17/1987 0          16.77     
Lake_Washington_Level 12/18/1987 0          16.8      
Lake_Washington_Level 12/19/1987 0          16.76     
Lake_Washington_Level 12/20/1987 0          16.79     
Lake_Washington_Level 12/21/1987 0          16.8      
Lake_Washington_Level 12/22/1987 0          16.77     
Lake_Washington_Level 12/23/1987 0          16.78     
Lake_Washington_Level 12/24/1987 0          16.77     
Lake_Washington_Level 12/25/1987 0          16.77     
Lake_Washington_Level 12/26/1987 0          16.75     
Lake_Washington_Level 12/27/1987 0          16.76     
Lake_Washington_Level 12/28/1987 0          16.75     
Lake_Washington_Level 12/29/1987 0          16.75     
Lake_Washington_Level 12/30/1987 0          16.76     
Lake_Washington_Level 12/31/1987 0          16.76     
Lake_Washington_Level 01/01/1988 0          16.79     
Lake_Washington_Level 01/02/1988 0          16.8      
Lake_Washington_Level 01/03/1988 0          16.79     
Lake_Washington_Level 01/04/1988 0          16.8      
Lake_Washington_Level 01/05/1988 0          16.77     
Lake_Washington_Level 01/06/1988 0          16.78     
Lake_Washington_Level 01/07/1988 0          16.79     
Lake_Washington_Level 01/08/1988 0          16.79     
Lake_Washington_Level 01/09/1988 0          16.79     
Lake_Washington_Level 01/10/1988 0          16.79     
Lake_Washington_Level 01/11/1988 0          16.79     
Lake_Washington_Level 01/12/1988 0          16.79     
Lake_Washington_Level 01/13/1988 0          16.79     
Lake_Washington_Level 01/14/1988 0          16.79     
Lake_Washington_Level 01/15/1988 0          16.79     
Lake_Washington_Level 01/16/1988 0          16.79     
Lake_Washington_Level 01/17/1988 0          16.79     
Lake_Washington_Level 01/18/1988 0          16.79     
Lake_Washington_Level 01/19/1988 0          16.79     
Lake_Washington_Level 01/20/1988 0          16.8      
Lake_Washington_Level 01/21/1988 0          16.8      
Lake_Washington_Level 01/22/1988 0          16.79     
Lake_Washington_Level 01/23/1988 0          16.79     
Lake_Washington_Level 01/24/1988 0          16.78     
Lake_Washington_Level 01/25/1988 0          16.81     
Lake_Washington_Level 01/26/1988 0          16.8      
Lake_Washington_Level 01/27/1988 0          16.81     
Lake_Washington_Level 01/28/1988 0          16.79     
Lake_Washington_Level 01/29/1988 0          16.79     
Lake_Washington_Level 01/30/1988 0          16.79     
Lake_Washington_Level 01/31/1988 0          16.81     
Lake_Washington_Level 02/01/1988 0          16.79     
Lake_Washington_Level 02/02/1988 0          16.79     
Lake_Washington_Level 02/03/1988 0          16.79     
Lake_Washington_Level 02/04/1988 0          16.79     
Lake_Washington_Level 02/05/1988 0          16.8      
Lake_Washington_Level 02/06/1988 0          16.81     
Lake_Washington_Level 02/07/1988 0          16.8      
Lake_Washington_Level 02/08/1988 0          16.8      
Lake_Washington_Level 02/09/1988 0          16.79     
Lake_Washington_Level 02/10/1988 0          16.8      
Lake_Washington_Level 02/11/1988 0          16.8      
Lake_Washington_Level 02/12/1988 0          16.8      
Lake_Washington_Level 02/13/1988 0          16.82     
Lake_Washington_Level 02/14/1988 0          16.82     
Lake_Washington_Level 02/15/1988 0          16.79     
Lake_Washington_Level 02/16/1988 0          16.8      
Lake_Washington_Level 02/17/1988 0          16.82     
Lake_Washington_Level 02/18/1988 0          16.84     
Lake_Washington_Level 02/19/1988 0          16.85     
Lake_Washington_Level 02/20/1988 0          16.88     
Lake_Washington_Level 02/21/1988 0          16.88     
Lake_Washington_Level 02/22/1988 0          16.91     
Lake_Washington_Level 02/23/1988 0          16.95     
Lake_Washington_Level 02/24/1988 0          16.97     
Lake_Washington_Level 02/25/1988 0          17        
Lake_Washington_Level 02/26/1988 0          17        
Lake_Washington_Level 02/27/1988 0          17        
Lake_Washington_Level 02/28/1988 0          17.02     
Lake_Washington_Level 02/29/1988 0          17.05     
Lake_Washington_Level 03/01/1988 0          17.03     
Lake_Washington_Level 03/02/1988 0          17.06     
Lake_Washington_Level 03/03/1988 0          17.09     
Lake_Washington_Level 03/04/1988 0          17.07     
Lake_Washington_Level 03/05/1988 0          17.11     
Lake_Washington_Level 03/06/1988 0          17.16     
Lake_Washington_Level 03/07/1988 0          17.17     
Lake_Washington_Level 03/08/1988 0          17.21     
Lake_Washington_Level 03/09/1988 0          17.28     
Lake_Washington_Level 03/10/1988 0          17.35     
Lake_Washington_Level 03/11/1988 0          17.37     
Lake_Washington_Level 03/12/1988 0          17.43     
Lake_Washington_Level 03/13/1988 0          17.47     
Lake_Washington_Level 03/14/1988 0          17.5      
Lake_Washington_Level 03/15/1988 0          17.56     
Lake_Washington_Level 03/16/1988 0          17.58     
Lake_Washington_Level 03/17/1988 0          17.63     
Lake_Washington_Level 03/18/1988 0          17.67     
Lake_Washington_Level 03/19/1988 0          17.72     
Lake_Washington_Level 03/20/1988 0          17.76     
Lake_Washington_Level 03/21/1988 0          17.82     
Lake_Washington_Level 03/22/1988 0          17.86     
Lake_Washington_Level 03/23/1988 0          17.94     
Lake_Washington_Level 03/24/1988 0          18        
Lake_Washington_Level 03/25/1988 0          18.08     
Lake_Washington_Level 03/26/1988 0          18.32     
Lake_Washington_Level 03/27/1988 0          18.55     
Lake_Washington_Level 03/28/1988 0          18.58     
Lake_Washington_Level 03/29/1988 0          18.6      
Lake_Washington_Level 03/30/1988 0          18.6      
Lake_Washington_Level 03/31/1988 0          18.6      
Lake_Washington_Level 04/01/1988 0          18.6      
Lake_Washington_Level 04/02/1988 0          18.6      
Lake_Washington_Level 04/03/1988 0          18.55     
Lake_Washington_Level 04/04/1988 0          18.6      
Lake_Washington_Level 04/05/1988 0          18.6      
Lake_Washington_Level 04/06/1988 0          18.6      
Lake_Washington_Level 04/07/1988 0          18.6      
Lake_Washington_Level 04/08/1988 0          18.6      
Lake_Washington_Level 04/09/1988 0          18.61     
Lake_Washington_Level 04/10/1988 0          18.6      
Lake_Washington_Level 04/11/1988 0          18.6      
Lake_Washington_Level 04/12/1988 0          18.6      
Lake_Washington_Level 04/13/1988 0          18.59     
Lake_Washington_Level 04/14/1988 0          18.6      
Lake_Washington_Level 04/15/1988 0          18.61     
Lake_Washington_Level 04/16/1988 0          18.6      
Lake_Washington_Level 04/17/1988 0          18.59     
Lake_Washington_Level 04/18/1988 0          18.61     
Lake_Washington_Level 04/19/1988 0          18.63     
Lake_Washington_Level 04/20/1988 0          18.59     
Lake_Washington_Level 04/21/1988 0          18.63     
Lake_Washington_Level 04/22/1988 0          18.6      
Lake_Washington_Level 04/23/1988 0          18.59     
Lake_Washington_Level 04/24/1988 0          18.58     
Lake_Washington_Level 04/25/1988 0          18.59     
Lake_Washington_Level 04/26/1988 0          18.6      
Lake_Washington_Level 04/27/1988 0          18.6      
Lake_Washington_Level 04/28/1988 0          18.6      
Lake_Washington_Level 04/29/1988 0          18.6      
Lake_Washington_Level 04/30/1988 0          18.6      
Lake_Washington_Level 05/01/1988 0          18.6      
Lake_Washington_Level 05/02/1988 0          18.61     
Lake_Washington_Level 05/03/1988 0          18.6      
Lake_Washington_Level 05/04/1988 0          18.6      
Lake_Washington_Level 05/05/1988 0          18.6      
Lake_Washington_Level 05/06/1988 0          18.6      
Lake_Washington_Level 05/07/1988 0          18.6      
Lake_Washington_Level 05/08/1988 0          18.6      
Lake_Washington_Level 05/09/1988 0          18.6      
Lake_Washington_Level 05/10/1988 0          18.6      
Lake_Washington_Level 05/11/1988 0          18.61     
Lake_Washington_Level 05/12/1988 0          18.6      
Lake_Washington_Level 05/13/1988 0          18.6      
Lake_Washington_Level 05/14/1988 0          18.6      
Lake_Washington_Level 05/15/1988 0          18.6      
Lake_Washington_Level 05/16/1988 0          18.6      
Lake_Washington_Level 05/17/1988 0          18.6      
Lake_Washington_Level 05/18/1988 0          18.62     
Lake_Washington_Level 05/19/1988 0          18.6      
Lake_Washington_Level 05/20/1988 0          18.6      
Lake_Washington_Level 05/21/1988 0          18.61     
Lake_Washington_Level 05/22/1988 0          18.62     
Lake_Washington_Level 05/23/1988 0          18.6      
Lake_Washington_Level 05/24/1988 0          18.6      
Lake_Washington_Level 05/25/1988 0          18.6      
Lake_Washington_Level 05/26/1988 0          18.6      
Lake_Washington_Level 05/27/1988 0          18.6      
Lake_Washington_Level 05/28/1988 0          18.61     
Lake_Washington_Level 05/29/1988 0          18.61     
Lake_Washington_Level 05/30/1988 0          18.6      
Lake_Washington_Level 05/31/1988 0          18.6      
Lake_Washington_Level 06/01/1988 0          18.61     
Lake_Washington_Level 06/02/1988 0          18.6      
Lake_Washington_Level 06/03/1988 0          18.6      
Lake_Washington_Level 06/04/1988 0          18.61     
Lake_Washington_Level 06/05/1988 0          18.61     
Lake_Washington_Level 06/06/1988 0          18.6      
Lake_Washington_Level 06/07/1988 0          18.6      
Lake_Washington_Level 06/08/1988 0          18.6      
Lake_Washington_Level 06/09/1988 0          18.6      
Lake_Washington_Level 06/10/1988 0          18.67     
Lake_Washington_Level 06/11/1988 0          18.65     
Lake_Washington_Level 06/12/1988 0          18.69     
Lake_Washington_Level 06/13/1988 0          18.73     
Lake_Washington_Level 06/14/1988 0          18.75     
Lake_Washington_Level 06/15/1988 0          18.71     
Lake_Washington_Level 06/16/1988 0          18.73     
Lake_Washington_Level 06/17/1988 0          18.73     
Lake_Washington_Level 06/18/1988 0          18.7      
Lake_Washington_Level 06/19/1988 0          18.71     
Lake_Washington_Level 06/20/1988 0          18.7      
Lake_Washington_Level 06/21/1988 0          18.75     
Lake_Washington_Level 06/22/1988 0          18.71     
Lake_Washington_Level 06/23/1988 0          18.71     
Lake_Washington_Level 06/24/1988 0          18.7      
Lake_Washington_Level 06/25/1988 0          18.7      
Lake_Washington_Level 06/26/1988 0          18.7      
Lake_Washington_Level 06/27/1988 0          18.68     
Lake_Washington_Level 06/28/1988 0          18.66     
Lake_Washington_Level 06/29/1988 0          18.66     
Lake_Washington_Level 06/30/1988 0          18.65     
Lake_Washington_Level 07/01/1988 0          18.62     
Lake_Washington_Level 07/02/1988 0          18.65     
Lake_Washington_Level 07/03/1988 0          18.65     
Lake_Washington_Level 07/04/1988 0          18.63     
Lake_Washington_Level 07/05/1988 0          18.62     
Lake_Washington_Level 07/06/1988 0          18.62     
Lake_Washington_Level 07/07/1988 0          18.6      
Lake_Washington_Level 07/08/1988 0          18.57     
Lake_Washington_Level 07/09/1988 0          18.57     
Lake_Washington_Level 07/10/1988 0          18.51     
Lake_Washington_Level 07/11/1988 0          18.51     
Lake_Washington_Level 07/12/1988 0          18.5      
Lake_Washington_Level 07/13/1988 0          18.5      
Lake_Washington_Level 07/14/1988 0          18.5      
Lake_Washington_Level 07/15/1988 0          18.48     
Lake_Washington_Level 07/16/1988 0          18.45     
Lake_Washington_Level 07/17/1988 0          18.45     
Lake_Washington_Level 07/18/1988 0          18.41     
Lake_Washington_Level 07/19/1988 0          18.39     
Lake_Washington_Level 07/20/1988 0          18.36     
Lake_Washington_Level 07/21/1988 0          18.37     
Lake_Washington_Level 07/22/1988 0          18.35     
Lake_Washington_Level 07/23/1988 0          18.35     
Lake_Washington_Level 07/24/1988 0          18.27     
Lake_Washington_Level 07/25/1988 0          18.24     
Lake_Washington_Level 07/26/1988 0          18.21     
Lake_Washington_Level 07/27/1988 0          18.24     
Lake_Washington_Level 07/28/1988 0          18.18     
Lake_Washington_Level 07/29/1988 0          18.15     
Lake_Washington_Level 07/30/1988 0          18.11     
Lake_Washington_Level 07/31/1988 0          18.1      
Lake_Washington_Level 08/01/1988 0          18.04     
Lake_Washington_Level 08/02/1988 0          18.01     
Lake_Washington_Level 08/03/1988 0          18.03     
Lake_Washington_Level 08/04/1988 0          17.97     
Lake_Washington_Level 08/05/1988 0          17.98     
Lake_Washington_Level 08/06/1988 0          17.95     
Lake_Washington_Level 08/07/1988 0          17.92     
Lake_Washington_Level 08/08/1988 0          17.85     
Lake_Washington_Level 08/09/1988 0          17.84     
Lake_Washington_Level 08/10/1988 0          17.84     
Lake_Washington_Level 08/11/1988 0          17.77     
Lake_Washington_Level 08/12/1988 0          17.81     
Lake_Washington_Level 08/13/1988 0          17.8      
Lake_Washington_Level 08/14/1988 0          17.78     
Lake_Washington_Level 08/15/1988 0          17.76     
Lake_Washington_Level 08/16/1988 0          17.78     
Lake_Washington_Level 08/17/1988 0          17.76     
Lake_Washington_Level 08/18/1988 0          17.75     
Lake_Washington_Level 08/19/1988 0          17.75     
Lake_Washington_Level 08/20/1988 0          17.7      
Lake_Washington_Level 08/21/1988 0          17.68     
Lake_Washington_Level 08/22/1988 0          17.67     
Lake_Washington_Level 08/23/1988 0          17.64     
Lake_Washington_Level 08/24/1988 0          17.58     
Lake_Washington_Level 08/25/1988 0          17.54     
Lake_Washington_Level 08/26/1988 0          17.54     
Lake_Washington_Level 08/27/1988 0          17.54     
Lake_Washington_Level 08/28/1988 0          17.51     
Lake_Washington_Level 08/29/1988 0          17.51     
Lake_Washington_Level 08/30/1988 0          17.47     
Lake_Washington_Level 08/31/1988 0          17.44     
Lake_Washington_Level 09/01/1988 0          17.4      
Lake_Washington_Level 09/02/1988 0          17.36     
Lake_Washington_Level 09/03/1988 0          17.35     
Lake_Washington_Level 09/04/1988 0          17.3      
Lake_Washington_Level 09/05/1988 0          17.28     
Lake_Washington_Level 09/06/1988 0          17.27     
Lake_Washington_Level 09/07/1988 0          17.26     
Lake_Washington_Level 09/08/1988 0          17.25     
Lake_Washington_Level 09/09/1988 0          17.15     
Lake_Washington_Level 09/10/1988 0          17.15     
Lake_Washington_Level 09/11/1988 0          17.12     
Lake_Washington_Level 09/12/1988 0          17.09     
Lake_Washington_Level 09/13/1988 0          17.07     
Lake_Washington_Level 09/14/1988 0          17.06     
Lake_Washington_Level 09/15/1988 0          17.05     
Lake_Washington_Level 09/16/1988 0          17.05     
Lake_Washington_Level 09/17/1988 0          17.05     
Lake_Washington_Level 09/18/1988 0          17.06     
Lake_Washington_Level 09/19/1988 0          17.05     
Lake_Washington_Level 09/20/1988 0          17.06     
Lake_Washington_Level 09/21/1988 0          17.05     
Lake_Washington_Level 09/22/1988 0          17.05     
Lake_Washington_Level 09/23/1988 0          17.05     
Lake_Washington_Level 09/24/1988 0          17.03     
Lake_Washington_Level 09/25/1988 0          17.15     
Lake_Washington_Level 09/26/1988 0          17.17     
Lake_Washington_Level 09/27/1988 0          17.21     
Lake_Washington_Level 09/28/1988 0          17.23     
Lake_Washington_Level 09/29/1988 0          17.24     
Lake_Washington_Level 09/30/1988 0          17.22     
Lake_Washington_Level 10/01/1988 0          17.22     
Lake_Washington_Level 10/02/1988 0          17.23     
Lake_Washington_Level 10/03/1988 0          17.24     
Lake_Washington_Level 10/04/1988 0          17.22     
Lake_Washington_Level 10/05/1988 0          17.22     
Lake_Washington_Level 10/06/1988 0          17.21     
Lake_Washington_Level 10/07/1988 0          17.2      
Lake_Washington_Level 10/08/1988 0          17.22     
Lake_Washington_Level 10/09/1988 0          17.23     
Lake_Washington_Level 10/10/1988 0          17.22     
Lake_Washington_Level 10/11/1988 0          17.23     
Lake_Washington_Level 10/12/1988 0          17.24     
Lake_Washington_Level 10/13/1988 0          17.26     
Lake_Washington_Level 10/14/1988 0          17.36     
Lake_Washington_Level 10/15/1988 0          17.3      
Lake_Washington_Level 10/16/1988 0          17.29     
Lake_Washington_Level 10/17/1988 0          17.3      
Lake_Washington_Level 10/18/1988 0          17.27     
Lake_Washington_Level 10/19/1988 0          17.28     
Lake_Washington_Level 10/20/1988 0          17.25     
Lake_Washington_Level 10/21/1988 0          17.25     
Lake_Washington_Level 10/22/1988 0          17.32     
Lake_Washington_Level 10/23/1988 0          17.27     
Lake_Washington_Level 10/24/1988 0          17.3      
Lake_Washington_Level 10/25/1988 0          17.33     
Lake_Washington_Level 10/26/1988 0          17.28     
Lake_Washington_Level 10/27/1988 0          17.26     
Lake_Washington_Level 10/28/1988 0          17.25     
Lake_Washington_Level 10/29/1988 0          17.27     
Lake_Washington_Level 10/30/1988 0          17.3      
Lake_Washington_Level 10/31/1988 0          17.29     
Lake_Washington_Level 11/01/1988 0          17.31     
Lake_Washington_Level 11/02/1988 0          17.26     
Lake_Washington_Level 11/03/1988 0          17.19     
Lake_Washington_Level 11/04/1988 0          17.15     
Lake_Washington_Level 11/05/1988 0          17.15     
Lake_Washington_Level 11/06/1988 0          17.12     
Lake_Washington_Level 11/07/1988 0          17.1      
Lake_Washington_Level 11/08/1988 0          17.12     
Lake_Washington_Level 11/09/1988 0          17.1      
Lake_Washington_Level 11/10/1988 0          17.08     
Lake_Washington_Level 11/11/1988 0          17.06     
Lake_Washington_Level 11/12/1988 0          17.03     
Lake_Washington_Level 11/13/1988 0          17.02     
Lake_Washington_Level 11/14/1988 0          17.05     
Lake_Washington_Level 11/15/1988 0          17        
Lake_Washington_Level 11/16/1988 0          17        
Lake_Washington_Level 11/17/1988 0          17        
Lake_Washington_Level 11/18/1988 0          16.92     
Lake_Washington_Level 11/19/1988 0          16.94     
Lake_Washington_Level 11/20/1988 0          16.9      
Lake_Washington_Level 11/21/1988 0          16.89     
Lake_Washington_Level 11/22/1988 0          16.88     
Lake_Washington_Level 11/23/1988 0          16.87     
Lake_Washington_Level 11/24/1988 0          16.85     
Lake_Washington_Level 11/25/1988 0          16.85     
Lake_Washington_Level 11/26/1988 0          16.79     
Lake_Washington_Level 11/27/1988 0          16.8      
Lake_Washington_Level 11/28/1988 0          16.8      
Lake_Washington_Level 11/29/1988 0          16.77     
Lake_Washington_Level 11/30/1988 0          16.78     
Lake_Washington_Level 12/01/1988 0          16.75     
Lake_Washington_Level 12/02/1988 0          16.75     
Lake_Washington_Level 12/03/1988 0          16.76     
Lake_Washington_Level 12/04/1988 0          16.76     
Lake_Washington_Level 12/05/1988 0          16.76     
Lake_Washington_Level 12/06/1988 0          16.75     
Lake_Washington_Level 12/07/1988 0          16.75     
Lake_Washington_Level 12/08/1988 0          16.75     
Lake_Washington_Level 12/09/1988 0          16.75     
Lake_Washington_Level 12/10/1988 0          16.75     
Lake_Washington_Level 12/11/1988 0          16.75     
Lake_Washington_Level 12/12/1988 0          16.75     
Lake_Washington_Level 12/13/1988 0          16.76     
Lake_Washington_Level 12/14/1988 0          16.75     
Lake_Washington_Level 12/15/1988 0          16.75     
Lake_Washington_Level 12/16/1988 0          16.75     
Lake_Washington_Level 12/17/1988 0          16.75     
Lake_Washington_Level 12/18/1988 0          16.78     
Lake_Washington_Level 12/19/1988 0          16.75     
Lake_Washington_Level 12/20/1988 0          16.75     
Lake_Washington_Level 12/21/1988 0          16.75     
Lake_Washington_Level 12/22/1988 0          16.75     
Lake_Washington_Level 12/23/1988 0          16.76     
Lake_Washington_Level 12/24/1988 0          16.76     
Lake_Washington_Level 12/25/1988 0          16.75     
Lake_Washington_Level 12/26/1988 0          16.75     
Lake_Washington_Level 12/27/1988 0          16.75     
Lake_Washington_Level 12/28/1988 0          16.75     
Lake_Washington_Level 12/29/1988 0          16.75     
Lake_Washington_Level 12/30/1988 0          16.75     
Lake_Washington_Level 12/31/1988 0          16.75     
Lake_Washington_Level 01/01/1989 0          16.75     
Lake_Washington_Level 01/02/1989 0          16.75     
Lake_Washington_Level 01/03/1989 0          16.77     
Lake_Washington_Level 01/04/1989 0          16.75     
Lake_Washington_Level 01/05/1989 0          16.77     
Lake_Washington_Level 01/06/1989 0          16.75     
Lake_Washington_Level 01/07/1989 0          16.75     
Lake_Washington_Level 01/08/1989 0          16.75     
Lake_Washington_Level 01/09/1989 0          16.77     
Lake_Washington_Level 01/10/1989 0          16.77     
Lake_Washington_Level 01/11/1989 0          16.75     
Lake_Washington_Level 01/12/1989 0          16.75     
Lake_Washington_Level 01/13/1989 0          16.75     
Lake_Washington_Level 01/14/1989 0          16.75     
Lake_Washington_Level 01/15/1989 0          16.75     
Lake_Washington_Level 01/16/1989 0          16.75     
Lake_Washington_Level 01/17/1989 0          16.75     
Lake_Washington_Level 01/18/1989 0          16.75     
Lake_Washington_Level 01/19/1989 0          16.75     
Lake_Washington_Level 01/20/1989 0          16.75     
Lake_Washington_Level 01/21/1989 0          16.75     
Lake_Washington_Level 01/22/1989 0          16.75     
Lake_Washington_Level 01/23/1989 0          16.75     
Lake_Washington_Level 01/24/1989 0          16.76     
Lake_Washington_Level 01/25/1989 0          16.76     
Lake_Washington_Level 01/26/1989 0          16.75     
Lake_Washington_Level 01/27/1989 0          16.75     
Lake_Washington_Level 01/28/1989 0          16.75     
Lake_Washington_Level 01/29/1989 0          16.75     
Lake_Washington_Level 01/30/1989 0          16.76     
Lake_Washington_Level 01/31/1989 0          16.75     
Lake_Washington_Level 02/01/1989 0          16.76     
Lake_Washington_Level 02/02/1989 0          16.75     
Lake_Washington_Level 02/03/1989 0          16.75     
Lake_Washington_Level 02/04/1989 0          16.75     
Lake_Washington_Level 02/05/1989 0          16.75     
Lake_Washington_Level 02/06/1989 0          16.75     
Lake_Washington_Level 02/07/1989 0          16.75     
Lake_Washington_Level 02/08/1989 0          16.75     
Lake_Washington_Level 02/09/1989 0          16.75     
Lake_Washington_Level 02/10/1989 0          16.75     
Lake_Washington_Level 02/11/1989 0          16.75     
Lake_Washington_Level 02/12/1989 0          16.75     
Lake_Washington_Level 02/13/1989 0          16.75     
Lake_Washington_Level 02/14/1989 0          16.76     
Lake_Washington_Level 02/15/1989 0          16.77     
Lake_Washington_Level 02/16/1989 0          16.78     
Lake_Washington_Level 02/17/1989 0          16.83     
Lake_Washington_Level 02/18/1989 0          16.85     
Lake_Washington_Level 02/19/1989 0          16.87     
Lake_Washington_Level 02/20/1989 0          16.88     
Lake_Washington_Level 02/21/1989 0          16.92     
Lake_Washington_Level 02/22/1989 0          16.95     
Lake_Washington_Level 02/23/1989 0          16.97     
Lake_Washington_Level 02/24/1989 0          17        
Lake_Washington_Level 02/25/1989 0          17.02     
Lake_Washington_Level 02/26/1989 0          17.05     
Lake_Washington_Level 02/27/1989 0          17.05     
Lake_Washington_Level 02/28/1989 0          17.1      
Lake_Washington_Level 03/01/1989 0          17.12     
Lake_Washington_Level 03/02/1989 0          17.14     
Lake_Washington_Level 03/03/1989 0          17.17     
Lake_Washington_Level 03/04/1989 0          17.19     
Lake_Washington_Level 03/05/1989 0          17.22     
Lake_Washington_Level 03/06/1989 0          17.24     
Lake_Washington_Level 03/07/1989 0          17.27     
Lake_Washington_Level 03/08/1989 0          17.29     
Lake_Washington_Level 03/09/1989 0          17.32     
Lake_Washington_Level 03/10/1989 0          17.34     
Lake_Washington_Level 03/11/1989 0          17.37     
Lake_Washington_Level 03/12/1989 0          17.39     
Lake_Washington_Level 03/13/1989 0          17.42     
Lake_Washington_Level 03/14/1989 0          17.44     
Lake_Washington_Level 03/15/1989 0          17.47     
Lake_Washington_Level 03/16/1989 0          17.49     
Lake_Washington_Level 03/17/1989 0          17.5      
Lake_Washington_Level 03/18/1989 0          17.54     
Lake_Washington_Level 03/19/1989 0          17.56     
Lake_Washington_Level 03/20/1989 0          17.59     
Lake_Washington_Level 03/21/1989 0          17.61     
Lake_Washington_Level 03/22/1989 0          17.64     
Lake_Washington_Level 03/23/1989 0          17.66     
Lake_Washington_Level 03/24/1989 0          17.69     
Lake_Washington_Level 03/25/1989 0          17.71     
Lake_Washington_Level 03/26/1989 0          17.74     
Lake_Washington_Level 03/27/1989 0          17.76     
Lake_Washington_Level 03/28/1989 0          17.79     
Lake_Washington_Level 03/29/1989 0          17.81     
Lake_Washington_Level 03/30/1989 0          17.84     
Lake_Washington_Level 03/31/1989 0          17.86     
Lake_Washington_Level 04/01/1989 0          17.88     
Lake_Washington_Level 04/02/1989 0          17.91     
Lake_Washington_Level 04/03/1989 0          17.93     
Lake_Washington_Level 04/04/1989 0          17.96     
Lake_Washington_Level 04/05/1989 0          17.98     
Lake_Washington_Level 04/06/1989 0          18.01     
Lake_Washington_Level 04/07/1989 0          18.03     
Lake_Washington_Level 04/08/1989 0          18.06     
Lake_Washington_Level 04/09/1989 0          18.08     
Lake_Washington_Level 04/10/1989 0          18.11     
Lake_Washington_Level 04/11/1989 0          18.13     
Lake_Washington_Level 04/12/1989 0          18.16     
Lake_Washington_Level 04/13/1989 0          18.18     
Lake_Washington_Level 04/14/1989 0          18.21     
Lake_Washington_Level 04/15/1989 0          18.23     
Lake_Washington_Level 04/16/1989 0          18.25     
Lake_Washington_Level 04/17/1989 0          18.28     
Lake_Washington_Level 04/18/1989 0          18.3      
Lake_Washington_Level 04/19/1989 0          18.33     
Lake_Washington_Level 04/20/1989 0          18.35     
Lake_Washington_Level 04/21/1989 0          18.38     
Lake_Washington_Level 04/22/1989 0          18.4      
Lake_Washington_Level 04/23/1989 0          18.43     
Lake_Washington_Level 04/24/1989 0          18.45     
Lake_Washington_Level 04/25/1989 0          18.48     
Lake_Washington_Level 04/26/1989 0          18.5      
Lake_Washington_Level 04/27/1989 0          18.53     
Lake_Washington_Level 04/28/1989 0          18.55     
Lake_Washington_Level 04/29/1989 0          18.58     
Lake_Washington_Level 04/30/1989 0          18.6      
Lake_Washington_Level 05/01/1989 0          18.6      
Lake_Washington_Level 05/02/1989 0          18.6      
Lake_Washington_Level 05/03/1989 0          18.6      
Lake_Washington_Level 05/04/1989 0          18.6      
Lake_Washington_Level 05/05/1989 0          18.6      
Lake_Washington_Level 05/06/1989 0          18.6      
Lake_Washington_Level 05/07/1989 0          18.6      
Lake_Washington_Level 05/08/1989 0          18.6      
Lake_Washington_Level 05/09/1989 0          18.6      
Lake_Washington_Level 05/10/1989 0          18.6      
Lake_Washington_Level 05/11/1989 0          18.6      
Lake_Washington_Level 05/12/1989 0          18.6      
Lake_Washington_Level 05/13/1989 0          18.6      
Lake_Washington_Level 05/14/1989 0          18.6      
Lake_Washington_Level 05/15/1989 0          18.6      
Lake_Washington_Level 05/16/1989 0          18.6      
Lake_Washington_Level 05/17/1989 0          18.6      
Lake_Washington_Level 05/18/1989 0          18.6      
Lake_Washington_Level 05/19/1989 0          18.6      
Lake_Washington_Level 05/20/1989 0          18.6      
Lake_Washington_Level 05/21/1989 0          18.6      
Lake_Washington_Level 05/22/1989 0          18.6      
Lake_Washington_Level 05/23/1989 0          18.6      
Lake_Washington_Level 05/24/1989 0          18.6      
Lake_Washington_Level 05/25/1989 0          18.6      
Lake_Washington_Level 05/26/1989 0          18.6      
Lake_Washington_Level 05/27/1989 0          18.6      
Lake_Washington_Level 05/28/1989 0          18.6      
Lake_Washington_Level 05/29/1989 0          18.6      
Lake_Washington_Level 05/30/1989 0          18.6      
Lake_Washington_Level 05/31/1989 0          18.6      
Lake_Washington_Level 06/01/1989 0          18.6      
Lake_Washington_Level 06/02/1989 0          18.6      
Lake_Washington_Level 06/03/1989 0          18.6      
Lake_Washington_Level 06/04/1989 0          18.6      
Lake_Washington_Level 06/05/1989 0          18.6      
Lake_Washington_Level 06/06/1989 0          18.65     
Lake_Washington_Level 06/07/1989 0          18.7      
Lake_Washington_Level 06/08/1989 0          18.74     
Lake_Washington_Level 06/09/1989 0          18.75     
Lake_Washington_Level 06/10/1989 0          18.67     
Lake_Washington_Level 06/11/1989 0          18.63     
Lake_Washington_Level 06/12/1989 0          18.65     
Lake_Washington_Level 06/13/1989 0          18.65     
Lake_Washington_Level 06/14/1989 0          18.65     
Lake_Washington_Level 06/15/1989 0          18.67     
Lake_Washington_Level 06/16/1989 0          18.67     
Lake_Washington_Level 06/17/1989 0          18.7      
Lake_Washington_Level 06/18/1989 0          18.68     
Lake_Washington_Level 06/19/1989 0          18.67     
Lake_Washington_Level 06/20/1989 0          18.75     
Lake_Washington_Level 06/21/1989 0          18.75     
Lake_Washington_Level 06/22/1989 0          18.75     
Lake_Washington_Level 06/23/1989 0          18.73     
Lake_Washington_Level 06/24/1989 0          18.74     
Lake_Washington_Level 06/25/1989 0          18.7      
Lake_Washington_Level 06/26/1989 0          18.69     
Lake_Washington_Level 06/27/1989 0          18.67     
Lake_Washington_Level 06/28/1989 0          18.65     
Lake_Washington_Level 06/29/1989 0          18.68     
Lake_Washington_Level 06/30/1989 0          18.69     
Lake_Washington_Level 07/01/1989 0          18.72     
Lake_Washington_Level 07/02/1989 0          18.69     
Lake_Washington_Level 07/03/1989 0          18.7      
Lake_Washington_Level 07/04/1989 0          18.7      
Lake_Washington_Level 07/05/1989 0          18.68     
Lake_Washington_Level 07/06/1989 0          18.66     
Lake_Washington_Level 07/07/1989 0          18.64     
Lake_Washington_Level 07/08/1989 0          18.64     
Lake_Washington_Level 07/09/1989 0          18.61     
Lake_Washington_Level 07/10/1989 0          18.6      
Lake_Washington_Level 07/11/1989 0          18.56     
Lake_Washington_Level 07/12/1989 0          18.55     
Lake_Washington_Level 07/13/1989 0          18.55     
Lake_Washington_Level 07/14/1989 0          18.55     
Lake_Washington_Level 07/15/1989 0          18.49     
Lake_Washington_Level 07/16/1989 0          18.49     
Lake_Washington_Level 07/17/1989 0          18.5      
Lake_Washington_Level 07/18/1989 0          18.5      
Lake_Washington_Level 07/19/1989 0          18.48     
Lake_Washington_Level 07/20/1989 0          18.48     
Lake_Washington_Level 07/21/1989 0          18.46     
Lake_Washington_Level 07/22/1989 0          18.39     
Lake_Washington_Level 07/23/1989 0          18.39     
Lake_Washington_Level 07/24/1989 0          18.37     
Lake_Washington_Level 07/25/1989 0          18.31     
Lake_Washington_Level 07/26/1989 0          18.3      
Lake_Washington_Level 07/27/1989 0          18.28     
Lake_Washington_Level 07/28/1989 0          18.23     
Lake_Washington_Level 07/29/1989 0          18.22     
Lake_Washington_Level 07/30/1989 0          18.23     
Lake_Washington_Level 07/31/1989 0          18.2      
Lake_Washington_Level 08/01/1989 0          18.2      
Lake_Washington_Level 08/02/1989 0          18.18     
Lake_Washington_Level 08/03/1989 0          18.15     
Lake_Washington_Level 08/04/1989 0          18.13     
Lake_Washington_Level 08/05/1989 0          18.08     
Lake_Washington_Level 08/06/1989 0          18.08     
Lake_Washington_Level 08/07/1989 0          18.05     
Lake_Washington_Level 08/08/1989 0          18.03     
Lake_Washington_Level 08/09/1989 0          18.03     
Lake_Washington_Level 08/10/1989 0          17.96     
Lake_Washington_Level 08/11/1989 0          17.95     
Lake_Washington_Level 08/12/1989 0          17.93     
Lake_Washington_Level 08/13/1989 0          17.9      
Lake_Washington_Level 08/14/1989 0          17.88     
Lake_Washington_Level 08/15/1989 0          17.88     
Lake_Washington_Level 08/16/1989 0          17.86     
Lake_Washington_Level 08/17/1989 0          17.86     
Lake_Washington_Level 08/18/1989 0          17.82     
Lake_Washington_Level 08/19/1989 0          17.82     
Lake_Washington_Level 08/20/1989 0          17.8      
Lake_Washington_Level 08/21/1989 0          17.79     
Lake_Washington_Level 08/22/1989 0          17.82     
Lake_Washington_Level 08/23/1989 0          17.8      
Lake_Washington_Level 08/24/1989 0          17.8      
Lake_Washington_Level 08/25/1989 0          17.78     
Lake_Washington_Level 08/26/1989 0          17.75     
Lake_Washington_Level 08/27/1989 0          17.75     
Lake_Washington_Level 08/28/1989 0          17.74     
Lake_Washington_Level 08/29/1989 0          17.71     
Lake_Washington_Level 08/30/1989 0          17.69     
Lake_Washington_Level 08/31/1989 0          17.68     
Lake_Washington_Level 09/01/1989 0          17.65     
Lake_Washington_Level 09/02/1989 0          17.64     
Lake_Washington_Level 09/03/1989 0          17.62     
Lake_Washington_Level 09/04/1989 0          17.61     
Lake_Washington_Level 09/05/1989 0          17.58     
Lake_Washington_Level 09/06/1989 0          17.57     
Lake_Washington_Level 09/07/1989 0          17.55     
Lake_Washington_Level 09/08/1989 0          17.52     
Lake_Washington_Level 09/09/1989 0          17.5      
Lake_Washington_Level 09/10/1989 0          17.46     
Lake_Washington_Level 09/11/1989 0          17.45     
Lake_Washington_Level 09/12/1989 0          17.43     
Lake_Washington_Level 09/13/1989 0          17.4      
Lake_Washington_Level 09/14/1989 0          17.38     
Lake_Washington_Level 09/15/1989 0          17.38     
Lake_Washington_Level 09/16/1989 0          17.36     
Lake_Washington_Level 09/17/1989 0          17.33     
Lake_Washington_Level 09/18/1989 0          17.3      
Lake_Washington_Level 09/19/1989 0          17.29     
Lake_Washington_Level 09/20/1989 0          17.26     
Lake_Washington_Level 09/21/1989 0          17.24     
Lake_Washington_Level 09/22/1989 0          17.22     
Lake_Washington_Level 09/23/1989 0          17.22     
Lake_Washington_Level 09/24/1989 0          17.2      
Lake_Washington_Level 09/25/1989 0          17.2      
Lake_Washington_Level 09/26/1989 0          17.18     
Lake_Washington_Level 09/27/1989 0          17.16     
Lake_Washington_Level 09/28/1989 0          17.14     
Lake_Washington_Level 09/29/1989 0          17.13     
Lake_Washington_Level 09/30/1989 0          17.12     
Lake_Washington_Level 10/01/1989 0          17.09     
Lake_Washington_Level 10/02/1989 0          17.09     
Lake_Washington_Level 10/03/1989 0          17.06     
Lake_Washington_Level 10/04/1989 0          17.09     
Lake_Washington_Level 10/05/1989 0          17.05     
Lake_Washington_Level 10/06/1989 0          17.04     
Lake_Washington_Level 10/07/1989 0          17.04     
Lake_Washington_Level 10/08/1989 0          17.01     
Lake_Washington_Level 10/09/1989 0          17.01     
Lake_Washington_Level 10/10/1989 0          17.01     
Lake_Washington_Level 10/11/1989 0          17.05     
Lake_Washington_Level 10/12/1989 0          17.08     
Lake_Washington_Level 10/13/1989 0          17.06     
Lake_Washington_Level 10/14/1989 0          17.09     
Lake_Washington_Level 10/15/1989 0          17.07     
Lake_Washington_Level 10/16/1989 0          17.09     
Lake_Washington_Level 10/17/1989 0          17.07     
Lake_Washington_Level 10/18/1989 0          17.08     
Lake_Washington_Level 10/19/1989 0          17.08     
Lake_Washington_Level 10/20/1989 0          17.07     
Lake_Washington_Level 10/21/1989 0          17.16     
Lake_Washington_Level 10/22/1989 0          17.18     
Lake_Washington_Level 10/23/1989 0          17.3      
Lake_Washington_Level 10/24/1989 0          17.25     
Lake_Washington_Level 10/25/1989 0          17.26     
Lake_Washington_Level 10/26/1989 0          17.26     
Lake_Washington_Level 10/27/1989 0          17.23     
Lake_Washington_Level 10/28/1989 0          17.23     
Lake_Washington_Level 10/29/1989 0          17.22     
Lake_Washington_Level 10/30/1989 0          17.19     
Lake_Washington_Level 10/31/1989 0          17.19     
Lake_Washington_Level 11/01/1989 0          17.21     
Lake_Washington_Level 11/02/1989 0          17.16     
Lake_Washington_Level 11/03/1989 0          17.14     
Lake_Washington_Level 11/04/1989 0          17.13     
Lake_Washington_Level 11/05/1989 0          17.12     
Lake_Washington_Level 11/06/1989 0          17.12     
Lake_Washington_Level 11/07/1989 0          17.08     
Lake_Washington_Level 11/08/1989 0          17.04     
Lake_Washington_Level 11/09/1989 0          17.06     
Lake_Washington_Level 11/10/1989 0          17.06     
Lake_Washington_Level 11/11/1989 0          17.03     
Lake_Washington_Level 11/12/1989 0          17.02     
Lake_Washington_Level 11/13/1989 0          17        
Lake_Washington_Level 11/14/1989 0          17        
Lake_Washington_Level 11/15/1989 0          16.98     
Lake_Washington_Level 11/16/1989 0          16.96     
Lake_Washington_Level 11/17/1989 0          16.95     
Lake_Washington_Level 11/18/1989 0          16.93     
Lake_Washington_Level 11/19/1989 0          16.92     
Lake_Washington_Level 11/20/1989 0          16.92     
Lake_Washington_Level 11/21/1989 0          16.87     
Lake_Washington_Level 11/22/1989 0          16.89     
Lake_Washington_Level 11/23/1989 0          16.86     
Lake_Washington_Level 11/24/1989 0          16.85     
Lake_Washington_Level 11/25/1989 0          16.83     
Lake_Washington_Level 11/26/1989 0          16.82     
Lake_Washington_Level 11/27/1989 0          16.81     
Lake_Washington_Level 11/28/1989 0          16.79     
Lake_Washington_Level 11/29/1989 0          16.78     
Lake_Washington_Level 11/30/1989 0          16.76     
Lake_Washington_Level 12/01/1989 0          16.75     
Lake_Washington_Level 12/02/1989 0          16.75     
Lake_Washington_Level 12/03/1989 0          16.75     
Lake_Washington_Level 12/04/1989 0          16.75     
Lake_Washington_Level 12/05/1989 0          16.75     
Lake_Washington_Level 12/06/1989 0          16.75     
Lake_Washington_Level 12/07/1989 0          16.75     
Lake_Washington_Level 12/08/1989 0          16.75     
Lake_Washington_Level 12/09/1989 0          16.75     
Lake_Washington_Level 12/10/1989 0          16.75     
Lake_Washington_Level 12/11/1989 0          16.75     
Lake_Washington_Level 12/12/1989 0          16.75     
Lake_Washington_Level 12/13/1989 0          16.75     
Lake_Washington_Level 12/14/1989 0          16.75     
Lake_Washington_Level 12/15/1989 0          16.75     
Lake_Washington_Level 12/16/1989 0          16.75     
Lake_Washington_Level 12/17/1989 0          16.75     
Lake_Washington_Level 12/18/1989 0          16.75     
Lake_Washington_Level 12/19/1989 0          16.75     
Lake_Washington_Level 12/20/1989 0          16.75     
Lake_Washington_Level 12/21/1989 0          16.75     
Lake_Washington_Level 12/22/1989 0          16.75     
Lake_Washington_Level 12/23/1989 0          16.75     
Lake_Washington_Level 12/24/1989 0          16.75     
Lake_Washington_Level 12/25/1989 0          16.75     
Lake_Washington_Level 12/26/1989 0          16.75     
Lake_Washington_Level 12/27/1989 0          16.75     
Lake_Washington_Level 12/28/1989 0          16.75     
Lake_Washington_Level 12/29/1989 0          16.75     
Lake_Washington_Level 12/30/1989 0          16.75     
Lake_Washington_Level 12/31/1989 0          16.75     
Lake_Washington_Level 01/01/1990 0          16.75     
Lake_Washington_Level 01/02/1990 0          16.75     
Lake_Washington_Level 01/03/1990 0          16.75     
Lake_Washington_Level 01/04/1990 0          16.75     
Lake_Washington_Level 01/05/1990 0          16.75     
Lake_Washington_Level 01/06/1990 0          16.75     
Lake_Washington_Level 01/07/1990 0          16.75     
Lake_Washington_Level 01/08/1990 0          16.75     
Lake_Washington_Level 01/09/1990 0          16.75     
Lake_Washington_Level 01/10/1990 0          16.75     
Lake_Washington_Level 01/11/1990 0          16.75     
Lake_Washington_Level 01/12/1990 0          16.75     
Lake_Washington_Level 01/13/1990 0          16.75     
Lake_Washington_Level 01/14/1990 0          16.75     
Lake_Washington_Level 01/15/1990 0          16.75     
Lake_Washington_Level 01/16/1990 0          16.75     
Lake_Washington_Level 01/17/1990 0          16.75     
Lake_Washington_Level 01/18/1990 0          16.75     
Lake_Washington_Level 01/19/1990 0          16.75     
Lake_Washington_Level 01/20/1990 0          16.75     
Lake_Washington_Level 01/21/1990 0          16.75     
Lake_Washington_Level 01/22/1990 0          16.75     
Lake_Washington_Level 01/23/1990 0          16.75     
Lake_Washington_Level 01/24/1990 0          16.75     
Lake_Washington_Level 01/25/1990 0          16.75     
Lake_Washington_Level 01/26/1990 0          16.75     
Lake_Washington_Level 01/27/1990 0          16.75     
Lake_Washington_Level 01/28/1990 0          16.75     
Lake_Washington_Level 01/29/1990 0          16.75     
Lake_Washington_Level 01/30/1990 0          16.75     
Lake_Washington_Level 01/31/1990 0          16.75     
Lake_Washington_Level 02/01/1990 0          16.75     
Lake_Washington_Level 02/02/1990 0          16.75     
Lake_Washington_Level 02/03/1990 0          16.75     
Lake_Washington_Level 02/04/1990 0          16.75     
Lake_Washington_Level 02/05/1990 0          16.75     
Lake_Washington_Level 02/06/1990 0          16.75     
Lake_Washington_Level 02/07/1990 0          16.75     
Lake_Washington_Level 02/08/1990 0          16.75     
Lake_Washington_Level 02/09/1990 0          16.75     
Lake_Washington_Level 02/10/1990 0          16.75     
Lake_Washington_Level 02/11/1990 0          16.75     
Lake_Washington_Level 02/12/1990 0          16.75     
Lake_Washington_Level 02/13/1990 0          16.75     
Lake_Washington_Level 02/14/1990 0          16.75     
Lake_Washington_Level 02/15/1990 0          16.77     
Lake_Washington_Level 02/16/1990 0          16.8      
Lake_Washington_Level 02/17/1990 0          16.82     
Lake_Washington_Level 02/18/1990 0          16.85     
Lake_Washington_Level 02/19/1990 0          16.87     
Lake_Washington_Level 02/20/1990 0          16.9      
Lake_Washington_Level 02/21/1990 0          16.92     
Lake_Washington_Level 02/22/1990 0          16.95     
Lake_Washington_Level 02/23/1990 0          16.97     
Lake_Washington_Level 02/24/1990 0          17        
Lake_Washington_Level 02/25/1990 0          17.01     
Lake_Washington_Level 02/26/1990 0          17.05     
Lake_Washington_Level 02/27/1990 0          17.07     
Lake_Washington_Level 02/28/1990 0          17.1      
Lake_Washington_Level 03/01/1990 0          17.12     
Lake_Washington_Level 03/02/1990 0          17.14     
Lake_Washington_Level 03/03/1990 0          17.17     
Lake_Washington_Level 03/04/1990 0          17.19     
Lake_Washington_Level 03/05/1990 0          17.22     
Lake_Washington_Level 03/06/1990 0          17.24     
Lake_Washington_Level 03/07/1990 0          17.27     
Lake_Washington_Level 03/08/1990 0          17.29     
Lake_Washington_Level 03/09/1990 0          17.32     
Lake_Washington_Level 03/10/1990 0          17.33     
Lake_Washington_Level 03/11/1990 0          17.36     
Lake_Washington_Level 03/12/1990 0          17.39     
Lake_Washington_Level 03/13/1990 0          17.42     
Lake_Washington_Level 03/14/1990 0          17.44     
Lake_Washington_Level 03/15/1990 0          17.47     
Lake_Washington_Level 03/16/1990 0          17.49     
Lake_Washington_Level 03/17/1990 0          17.52     
Lake_Washington_Level 03/18/1990 0          17.54     
Lake_Washington_Level 03/19/1990 0          17.56     
Lake_Washington_Level 03/20/1990 0          17.59     
Lake_Washington_Level 03/21/1990 0          17.61     
Lake_Washington_Level 03/22/1990 0          17.64     
Lake_Washington_Level 03/23/1990 0          17.66     
Lake_Washington_Level 03/24/1990 0          17.69     
Lake_Washington_Level 03/25/1990 0          17.71     
Lake_Washington_Level 03/26/1990 0          17.74     
Lake_Washington_Level 03/27/1990 0          17.76     
Lake_Washington_Level 03/28/1990 0          17.79     
Lake_Washington_Level 03/29/1990 0          17.81     
Lake_Washington_Level 03/30/1990 0          17.84     
Lake_Washington_Level 03/31/1990 0          17.86     
Lake_Washington_Level 04/01/1990 0          17.89     
Lake_Washington_Level 04/02/1990 0          17.91     
Lake_Washington_Level 04/03/1990 0          17.93     
Lake_Washington_Level 04/04/1990 0          17.96     
Lake_Washington_Level 04/05/1990 0          17.98     
Lake_Washington_Level 04/06/1990 0          18.01     
Lake_Washington_Level 04/07/1990 0          18.01     
Lake_Washington_Level 04/08/1990 0          18.03     
Lake_Washington_Level 04/09/1990 0          18.08     
Lake_Washington_Level 04/10/1990 0          18.08     
Lake_Washington_Level 04/11/1990 0          18.13     
Lake_Washington_Level 04/12/1990 0          18.16     
Lake_Washington_Level 04/13/1990 0          18.18     
Lake_Washington_Level 04/14/1990 0          18.21     
Lake_Washington_Level 04/15/1990 0          18.23     
Lake_Washington_Level 04/16/1990 0          18.26     
Lake_Washington_Level 04/17/1990 0          18.28     
Lake_Washington_Level 04/18/1990 0          18.3      
Lake_Washington_Level 04/19/1990 0          18.33     
Lake_Washington_Level 04/20/1990 0          18.35     
Lake_Washington_Level 04/21/1990 0          18.35     
Lake_Washington_Level 04/22/1990 0          18.4      
Lake_Washington_Level 04/23/1990 0          18.43     
Lake_Washington_Level 04/24/1990 0          18.45     
Lake_Washington_Level 04/25/1990 0          18.48     
Lake_Washington_Level 04/26/1990 0          18.5      
Lake_Washington_Level 04/27/1990 0          18.53     
Lake_Washington_Level 04/28/1990 0          18.55     
Lake_Washington_Level 04/29/1990 0          18.58     
Lake_Washington_Level 04/30/1990 0          18.6      
Lake_Washington_Level 05/01/1990 0          18.6      
Lake_Washington_Level 05/02/1990 0          18.6      
Lake_Washington_Level 05/03/1990 0          18.6      
Lake_Washington_Level 05/04/1990 0          18.6      
Lake_Washington_Level 05/05/1990 0          18.6      
Lake_Washington_Level 05/06/1990 0          18.6      
Lake_Washington_Level 05/07/1990 0          18.6      
Lake_Washington_Level 05/08/1990 0          18.6      
Lake_Washington_Level 05/09/1990 0          18.6      
Lake_Washington_Level 05/10/1990 0          18.6      
Lake_Washington_Level 05/11/1990 0          18.6      
Lake_Washington_Level 05/12/1990 0          18.6      
Lake_Washington_Level 05/13/1990 0          18.6      
Lake_Washington_Level 05/14/1990 0          18.6      
Lake_Washington_Level 05/15/1990 0          18.6      
Lake_Washington_Level 05/16/1990 0          18.57     
Lake_Washington_Level 05/17/1990 0          18.6      
Lake_Washington_Level 05/18/1990 0          18.6      
Lake_Washington_Level 05/19/1990 0          18.6      
Lake_Washington_Level 05/20/1990 0          18.6      
Lake_Washington_Level 05/21/1990 0          18.6      
Lake_Washington_Level 05/22/1990 0          18.6      
Lake_Washington_Level 05/23/1990 0          18.6      
Lake_Washington_Level 05/24/1990 0          18.6      
Lake_Washington_Level 05/25/1990 0          18.6      
Lake_Washington_Level 05/26/1990 0          18.6      
Lake_Washington_Level 05/27/1990 0          18.6      
Lake_Washington_Level 05/28/1990 0          18.6      
Lake_Washington_Level 05/29/1990 0          18.6      
Lake_Washington_Level 05/30/1990 0          18.6      
Lake_Washington_Level 05/31/1990 0          18.6      
Lake_Washington_Level 06/01/1990 0          18.6      
Lake_Washington_Level 06/02/1990 0          18.6      
Lake_Washington_Level 06/03/1990 0          18.6      
Lake_Washington_Level 06/04/1990 0          18.6      
Lake_Washington_Level 06/05/1990 0          18.6      
Lake_Washington_Level 06/06/1990 0          18.6      
Lake_Washington_Level 06/07/1990 0          18.6      
Lake_Washington_Level 06/08/1990 0          18.6      
Lake_Washington_Level 06/09/1990 0          18.6      
Lake_Washington_Level 06/10/1990 0          18.6      
Lake_Washington_Level 06/11/1990 0          18.6      
Lake_Washington_Level 06/12/1990 0          18.6      
Lake_Washington_Level 06/13/1990 0          18.6      
Lake_Washington_Level 06/14/1990 0          18.6      
Lake_Washington_Level 06/15/1990 0          18.6      
Lake_Washington_Level 06/16/1990 0          18.6      
Lake_Washington_Level 06/17/1990 0          18.6      
Lake_Washington_Level 06/18/1990 0          18.6      
Lake_Washington_Level 06/19/1990 0          18.6      
Lake_Washington_Level 06/20/1990 0          18.62     
Lake_Washington_Level 06/21/1990 0          18.59     
Lake_Washington_Level 06/22/1990 0          18.6      
Lake_Washington_Level 06/23/1990 0          18.65     
Lake_Washington_Level 06/24/1990 0          18.67     
Lake_Washington_Level 06/25/1990 0          18.75     
Lake_Washington_Level 06/26/1990 0          18.7      
Lake_Washington_Level 06/27/1990 0          18.73     
Lake_Washington_Level 06/28/1990 0          18.75     
Lake_Washington_Level 06/29/1990 0          18.7      
Lake_Washington_Level 06/30/1990 0          18.7      
Lake_Washington_Level 07/01/1990 0          18.75     
Lake_Washington_Level 07/02/1990 0          18.75     
Lake_Washington_Level 07/03/1990 0          18.75     
Lake_Washington_Level 07/04/1990 0          18.7      
Lake_Washington_Level 07/05/1990 0          18.7      
Lake_Washington_Level 07/06/1990 0          18.75     
Lake_Washington_Level 07/07/1990 0          18.75     
Lake_Washington_Level 07/08/1990 0          18.75     
Lake_Washington_Level 07/09/1990 0          18.75     
Lake_Washington_Level 07/10/1990 0          18.75     
Lake_Washington_Level 07/11/1990 0          18.75     
Lake_Washington_Level 07/12/1990 0          18.75     
Lake_Washington_Level 07/13/1990 0          18.75     
Lake_Washington_Level 07/14/1990 0          18.66     
Lake_Washington_Level 07/15/1990 0          18.65     
Lake_Washington_Level 07/16/1990 0          18.75     
Lake_Washington_Level 07/17/1990 0          18.58     
Lake_Washington_Level 07/18/1990 0          18.55     
Lake_Washington_Level 07/19/1990 0          18.57     
Lake_Washington_Level 07/20/1990 0          18.53     
Lake_Washington_Level 07/21/1990 0          18.5      
Lake_Washington_Level 07/22/1990 0          18.5      
Lake_Washington_Level 07/23/1990 0          18.5      
Lake_Washington_Level 07/24/1990 0          18.49     
Lake_Washington_Level 07/25/1990 0          18.47     
Lake_Washington_Level 07/26/1990 0          18.41     
Lake_Washington_Level 07/27/1990 0          18.43     
Lake_Washington_Level 07/28/1990 0          18.4      
Lake_Washington_Level 07/29/1990 0          18.38     
Lake_Washington_Level 07/30/1990 0          18.38     
Lake_Washington_Level 07/31/1990 0          18.35     
Lake_Washington_Level 08/01/1990 0          18.29     
Lake_Washington_Level 08/02/1990 0          18.28     
Lake_Washington_Level 08/03/1990 0          18.25     
Lake_Washington_Level 08/04/1990 0          18.23     
Lake_Washington_Level 08/05/1990 0          18.22     
Lake_Washington_Level 08/06/1990 0          18.21     
Lake_Washington_Level 08/07/1990 0          18.17     
Lake_Washington_Level 08/08/1990 0          18.15     
Lake_Washington_Level 08/09/1990 0          18.12     
Lake_Washington_Level 08/10/1990 0          18.1      
Lake_Washington_Level 08/11/1990 0          18.08     
Lake_Washington_Level 08/12/1990 0          18.05     
Lake_Washington_Level 08/13/1990 0          18.02     
Lake_Washington_Level 08/14/1990 0          18        
Lake_Washington_Level 08/15/1990 0          17.96     
Lake_Washington_Level 08/16/1990 0          17.92     
Lake_Washington_Level 08/17/1990 0          17.89     
Lake_Washington_Level 08/18/1990 0          17.89     
Lake_Washington_Level 08/19/1990 0          17.86     
Lake_Washington_Level 08/20/1990 0          17.85     
Lake_Washington_Level 08/21/1990 0          17.82     
Lake_Washington_Level 08/22/1990 0          17.83     
Lake_Washington_Level 08/23/1990 0          17.78     
Lake_Washington_Level 08/24/1990 0          17.8      
Lake_Washington_Level 08/25/1990 0          17.76     
Lake_Washington_Level 08/26/1990 0          17.73     
Lake_Washington_Level 08/27/1990 0          17.7      
Lake_Washington_Level 08/28/1990 0          17.68     
Lake_Washington_Level 08/29/1990 0          17.65     
Lake_Washington_Level 08/30/1990 0          17.67     
Lake_Washington_Level 08/31/1990 0          17.67     
Lake_Washington_Level 09/01/1990 0          17.65     
Lake_Washington_Level 09/02/1990 0          17.62     
Lake_Washington_Level 09/03/1990 0          17.6      
Lake_Washington_Level 09/04/1990 0          17.58     
Lake_Washington_Level 09/05/1990 0          17.57     
Lake_Washington_Level 09/06/1990 0          17.55     
Lake_Washington_Level 09/07/1990 0          17.53     
Lake_Washington_Level 09/08/1990 0          17.5      
Lake_Washington_Level 09/09/1990 0          17.48     
Lake_Washington_Level 09/10/1990 0          17.46     
Lake_Washington_Level 09/11/1990 0          17.45     
Lake_Washington_Level 09/12/1990 0          17.45     
Lake_Washington_Level 09/13/1990 0          17.43     
Lake_Washington_Level 09/14/1990 0          17.4      
Lake_Washington_Level 09/15/1990 0          17.37     
Lake_Washington_Level 09/16/1990 0          17.36     
Lake_Washington_Level 09/17/1990 0          17.34     
Lake_Washington_Level 09/18/1990 0          17.34     
Lake_Washington_Level 09/19/1990 0          17.32     
Lake_Washington_Level 09/20/1990 0          17.3      
Lake_Washington_Level 09/21/1990 0          17.27     
Lake_Washington_Level 09/22/1990 0          17.24     
Lake_Washington_Level 09/23/1990 0          17.25     
Lake_Washington_Level 09/24/1990 0          17.23     
Lake_Washington_Level 09/25/1990 0          17.2      
Lake_Washington_Level 09/26/1990 0          17.18     
Lake_Washington_Level 09/27/1990 0          17.17     
Lake_Washington_Level 09/28/1990 0          17.14     
Lake_Washington_Level 09/29/1990 0          17.13     
Lake_Washington_Level 09/30/1990 0          17.12     
Lake_Washington_Level 10/01/1990 0          17.09     
Lake_Washington_Level 10/02/1990 0          17.1      
Lake_Washington_Level 10/03/1990 0          17.11     
Lake_Washington_Level 10/04/1990 0          17.14     
Lake_Washington_Level 10/05/1990 0          17.24     
Lake_Washington_Level 10/06/1990 0          17.24     
Lake_Washington_Level 10/07/1990 0          17.24     
Lake_Washington_Level 10/08/1990 0          17.24     
Lake_Washington_Level 10/09/1990 0          17.22     
Lake_Washington_Level 10/10/1990 0          17.25     
Lake_Washington_Level 10/11/1990 0          17.22     
Lake_Washington_Level 10/12/1990 0          17.23     
Lake_Washington_Level 10/13/1990 0          17.23     
Lake_Washington_Level 10/14/1990 0          17.24     
Lake_Washington_Level 10/15/1990 0          17.25     
Lake_Washington_Level 10/16/1990 0          17.2      
Lake_Washington_Level 10/17/1990 0          17.25     
Lake_Washington_Level 10/18/1990 0          17.25     
Lake_Washington_Level 10/19/1990 0          17.2      
Lake_Washington_Level 10/20/1990 0          17.2      
Lake_Washington_Level 10/21/1990 0          17.25     
Lake_Washington_Level 10/22/1990 0          17.25     
Lake_Washington_Level 10/23/1990 0          17.21     
Lake_Washington_Level 10/24/1990 0          17.24     
Lake_Washington_Level 10/25/1990 0          17.25     
Lake_Washington_Level 10/26/1990 0          17.25     
Lake_Washington_Level 10/27/1990 0          17.24     
Lake_Washington_Level 10/28/1990 0          17.23     
Lake_Washington_Level 10/29/1990 0          17.19     
Lake_Washington_Level 10/30/1990 0          17.2      
Lake_Washington_Level 10/31/1990 0          17.19     
Lake_Washington_Level 11/01/1990 0          17.17     
Lake_Washington_Level 11/02/1990 0          17.16     
Lake_Washington_Level 11/03/1990 0          17.14     
Lake_Washington_Level 11/04/1990 0          17.13     
Lake_Washington_Level 11/05/1990 0          17.12     
Lake_Washington_Level 11/06/1990 0          17.1      
Lake_Washington_Level 11/07/1990 0          17.09     
Lake_Washington_Level 11/08/1990 0          17.07     
Lake_Washington_Level 11/09/1990 0          17.06     
Lake_Washington_Level 11/10/1990 0          17.06     
Lake_Washington_Level 11/11/1990 0          17.03     
Lake_Washington_Level 11/12/1990 0          17.04     
Lake_Washington_Level 11/13/1990 0          17.02     
Lake_Washington_Level 11/14/1990 0          16.99     
Lake_Washington_Level 11/15/1990 0          16.98     
Lake_Washington_Level 11/16/1990 0          16.96     
Lake_Washington_Level 11/17/1990 0          16.95     
Lake_Washington_Level 11/18/1990 0          16.93     
Lake_Washington_Level 11/19/1990 0          16.92     
Lake_Washington_Level 11/20/1990 0          16.91     
Lake_Washington_Level 11/21/1990 0          16.89     
Lake_Washington_Level 11/22/1990 0          16.86     
Lake_Washington_Level 11/23/1990 0          16.86     
Lake_Washington_Level 11/24/1990 0          16.86     
Lake_Washington_Level 11/25/1990 0          16.98     
Lake_Washington_Level 11/26/1990 0          17.01     
Lake_Washington_Level 11/27/1990 0          16.89     
Lake_Washington_Level 11/28/1990 0          16.8      
Lake_Washington_Level 11/29/1990 0          16.78     
Lake_Washington_Level 11/30/1990 0          16.76     
Lake_Washington_Level 12/01/1990 0          16.75     
Lake_Washington_Level 12/02/1990 0          16.79     
Lake_Washington_Level 12/03/1990 0          16.75     
Lake_Washington_Level 12/04/1990 0          16.84     
Lake_Washington_Level 12/05/1990 0          16.75     
Lake_Washington_Level 12/06/1990 0          16.75     
Lake_Washington_Level 12/07/1990 0          16.76     
Lake_Washington_Level 12/08/1990 0          16.75     
Lake_Washington_Level 12/09/1990 0          16.75     
Lake_Washington_Level 12/10/1990 0          16.78     
Lake_Washington_Level 12/11/1990 0          16.75     
Lake_Washington_Level 12/12/1990 0          16.75     
Lake_Washington_Level 12/13/1990 0          16.75     
Lake_Washington_Level 12/14/1990 0          16.75     
Lake_Washington_Level 12/15/1990 0          16.76     
Lake_Washington_Level 12/16/1990 0          16.75     
Lake_Washington_Level 12/17/1990 0          16.75     
Lake_Washington_Level 12/18/1990 0          16.79     
Lake_Washington_Level 12/19/1990 0          16.79     
Lake_Washington_Level 12/20/1990 0          16.75     
Lake_Washington_Level 12/21/1990 0          16.75     
Lake_Washington_Level 12/22/1990 0          16.75     
Lake_Washington_Level 12/23/1990 0          16.75     
Lake_Washington_Level 12/24/1990 0          16.75     
Lake_Washington_Level 12/25/1990 0          16.75     
Lake_Washington_Level 12/26/1990 0          16.75     
Lake_Washington_Level 12/27/1990 0          16.75     
Lake_Washington_Level 12/28/1990 0          16.75     
Lake_Washington_Level 12/29/1990 0          16.75     
Lake_Washington_Level 12/30/1990 0          16.75     
Lake_Washington_Level 12/31/1990 0          16.75     
Lake_Washington_Level 01/01/1991 0          16.75     
Lake_Washington_Level 01/02/1991 0          16.75     
Lake_Washington_Level 01/03/1991 0          16.75     
Lake_Washington_Level 01/04/1991 0          16.75     
Lake_Washington_Level 01/05/1991 0          16.75     
Lake_Washington_Level 01/06/1991 0          16.75     
Lake_Washington_Level 01/07/1991 0          16.75     
Lake_Washington_Level 01/08/1991 0          16.75     
Lake_Washington_Level 01/09/1991 0          16.75     
Lake_Washington_Level 01/10/1991 0          16.75     
Lake_Washington_Level 01/11/1991 0          16.75     
Lake_Washington_Level 01/12/1991 0          16.75     
Lake_Washington_Level 01/13/1991 0          16.75     
Lake_Washington_Level 01/14/1991 0          16.75     
Lake_Washington_Level 01/15/1991 0          16.75     
Lake_Washington_Level 01/16/1991 0          16.75     
Lake_Washington_Level 01/17/1991 0          16.75     
Lake_Washington_Level 01/18/1991 0          16.75     
Lake_Washington_Level 01/19/1991 0          16.75     
Lake_Washington_Level 01/20/1991 0          16.75     
Lake_Washington_Level 01/21/1991 0          16.75     
Lake_Washington_Level 01/22/1991 0          16.75     
Lake_Washington_Level 01/23/1991 0          16.75     
Lake_Washington_Level 01/24/1991 0          16.75     
Lake_Washington_Level 01/25/1991 0          16.75     
Lake_Washington_Level 01/26/1991 0          16.75     
Lake_Washington_Level 01/27/1991 0          16.75     
Lake_Washington_Level 01/28/1991 0          16.75     
Lake_Washington_Level 01/29/1991 0          16.75     
Lake_Washington_Level 01/30/1991 0          16.75     
Lake_Washington_Level 01/31/1991 0          16.75     
Lake_Washington_Level 02/01/1991 0          16.75     
Lake_Washington_Level 02/02/1991 0          16.75     
Lake_Washington_Level 02/03/1991 0          16.75     
Lake_Washington_Level 02/04/1991 0          16.75     
Lake_Washington_Level 02/05/1991 0          16.75     
Lake_Washington_Level 02/06/1991 0          16.75     
Lake_Washington_Level 02/07/1991 0          16.75     
Lake_Washington_Level 02/08/1991 0          16.75     
Lake_Washington_Level 02/09/1991 0          16.75     
Lake_Washington_Level 02/10/1991 0          16.75     
Lake_Washington_Level 02/11/1991 0          16.75     
Lake_Washington_Level 02/12/1991 0          16.75     
Lake_Washington_Level 02/13/1991 0          16.75     
Lake_Washington_Level 02/14/1991 0          16.75     
Lake_Washington_Level 02/15/1991 0          16.77     
Lake_Washington_Level 02/16/1991 0          16.8      
Lake_Washington_Level 02/17/1991 0          16.82     
Lake_Washington_Level 02/18/1991 0          16.85     
Lake_Washington_Level 02/19/1991 0          16.87     
Lake_Washington_Level 02/20/1991 0          16.9      
Lake_Washington_Level 02/21/1991 0          16.92     
Lake_Washington_Level 02/22/1991 0          16.95     
Lake_Washington_Level 02/23/1991 0          16.97     
Lake_Washington_Level 02/24/1991 0          17        
Lake_Washington_Level 02/25/1991 0          17.01     
Lake_Washington_Level 02/26/1991 0          17.05     
Lake_Washington_Level 02/27/1991 0          17.07     
Lake_Washington_Level 02/28/1991 0          17.1      
Lake_Washington_Level 03/01/1991 0          17.12     
Lake_Washington_Level 03/02/1991 0          17.14     
Lake_Washington_Level 03/03/1991 0          17.17     
Lake_Washington_Level 03/04/1991 0          17.19     
Lake_Washington_Level 03/05/1991 0          17.22     
Lake_Washington_Level 03/06/1991 0          17.24     
Lake_Washington_Level 03/07/1991 0          17.27     
Lake_Washington_Level 03/08/1991 0          17.29     
Lake_Washington_Level 03/09/1991 0          17.32     
Lake_Washington_Level 03/10/1991 0          17.33     
Lake_Washington_Level 03/11/1991 0          17.36     
Lake_Washington_Level 03/12/1991 0          17.39     
Lake_Washington_Level 03/13/1991 0          17.42     
Lake_Washington_Level 03/14/1991 0          17.44     
Lake_Washington_Level 03/15/1991 0          17.47     
Lake_Washington_Level 03/16/1991 0          17.49     
Lake_Washington_Level 03/17/1991 0          17.52     
Lake_Washington_Level 03/18/1991 0          17.54     
Lake_Washington_Level 03/19/1991 0          17.56     
Lake_Washington_Level 03/20/1991 0          17.59     
Lake_Washington_Level 03/21/1991 0          17.61     
Lake_Washington_Level 03/22/1991 0          17.64     
Lake_Washington_Level 03/23/1991 0          17.66     
Lake_Washington_Level 03/24/1991 0          17.69     
Lake_Washington_Level 03/25/1991 0          17.71     
Lake_Washington_Level 03/26/1991 0          17.74     
Lake_Washington_Level 03/27/1991 0          17.76     
Lake_Washington_Level 03/28/1991 0          17.79     
Lake_Washington_Level 03/29/1991 0          17.81     
Lake_Washington_Level 03/30/1991 0          17.84     
Lake_Washington_Level 03/31/1991 0          17.86     
Lake_Washington_Level 04/01/1991 0          17.89     
Lake_Washington_Level 04/02/1991 0          17.91     
Lake_Washington_Level 04/03/1991 0          17.93     
Lake_Washington_Level 04/04/1991 0          17.96     
Lake_Washington_Level 04/05/1991 0          17.98     
Lake_Washington_Level 04/06/1991 0          18.01     
Lake_Washington_Level 04/07/1991 0          18.01     
Lake_Washington_Level 04/08/1991 0          18.03     
Lake_Washington_Level 04/09/1991 0          18.08     
Lake_Washington_Level 04/10/1991 0          18.08     
Lake_Washington_Level 04/11/1991 0          18.13     
Lake_Washington_Level 04/12/1991 0          18.16     
Lake_Washington_Level 04/13/1991 0          18.18     
Lake_Washington_Level 04/14/1991 0          18.21     
Lake_Washington_Level 04/15/1991 0          18.23     
Lake_Washington_Level 04/16/1991 0          18.26     
Lake_Washington_Level 04/17/1991 0          18.28     
Lake_Washington_Level 04/18/1991 0          18.3      
Lake_Washington_Level 04/19/1991 0          18.33     
Lake_Washington_Level 04/20/1991 0          18.35     
Lake_Washington_Level 04/21/1991 0          18.35     
Lake_Washington_Level 04/22/1991 0          18.4      
Lake_Washington_Level 04/23/1991 0          18.43     
Lake_Washington_Level 04/24/1991 0          18.45     
Lake_Washington_Level 04/25/1991 0          18.48     
Lake_Washington_Level 04/26/1991 0          18.5      
Lake_Washington_Level 04/27/1991 0          18.53     
Lake_Washington_Level 04/28/1991 0          18.55     
Lake_Washington_Level 04/29/1991 0          18.58     
Lake_Washington_Level 04/30/1991 0          18.6      
Lake_Washington_Level 05/01/1991 0          18.6      
Lake_Washington_Level 05/02/1991 0          18.6      
Lake_Washington_Level 05/03/1991 0          18.6      
Lake_Washington_Level 05/04/1991 0          18.6      
Lake_Washington_Level 05/05/1991 0          18.6      
Lake_Washington_Level 05/06/1991 0          18.6      
Lake_Washington_Level 05/07/1991 0          18.6      
Lake_Washington_Level 05/08/1991 0          18.6      
Lake_Washington_Level 05/09/1991 0          18.6      
Lake_Washington_Level 05/10/1991 0          18.6      
Lake_Washington_Level 05/11/1991 0          18.6      
Lake_Washington_Level 05/12/1991 0          18.6      
Lake_Washington_Level 05/13/1991 0          18.6      
Lake_Washington_Level 05/14/1991 0          18.6      
Lake_Washington_Level 05/15/1991 0          18.6      
Lake_Washington_Level 05/16/1991 0          18.57     
Lake_Washington_Level 05/17/1991 0          18.6      
Lake_Washington_Level 05/18/1991 0          18.6      
Lake_Washington_Level 05/19/1991 0          18.6      
Lake_Washington_Level 05/20/1991 0          18.6      
Lake_Washington_Level 05/21/1991 0          18.6      
Lake_Washington_Level 05/22/1991 0          18.6      
Lake_Washington_Level 05/23/1991 0          18.6      
Lake_Washington_Level 05/24/1991 0          18.6      
Lake_Washington_Level 05/25/1991 0          18.6      
Lake_Washington_Level 05/26/1991 0          18.6      
Lake_Washington_Level 05/27/1991 0          18.6      
Lake_Washington_Level 05/28/1991 0          18.6      
Lake_Washington_Level 05/29/1991 0          18.6      
Lake_Washington_Level 05/30/1991 0          18.6      
Lake_Washington_Level 05/31/1991 0          18.6      
Lake_Washington_Level 06/01/1991 0          18.6      
Lake_Washington_Level 06/02/1991 0          18.6      
Lake_Washington_Level 06/03/1991 0          18.6      
Lake_Washington_Level 06/04/1991 0          18.6      
Lake_Washington_Level 06/05/1991 0          18.6      
Lake_Washington_Level 06/06/1991 0          18.6      
Lake_Washington_Level 06/07/1991 0          18.6      
Lake_Washington_Level 06/08/1991 0          18.6      
Lake_Washington_Level 06/09/1991 0          18.6      
Lake_Washington_Level 06/10/1991 0          18.6      
Lake_Washington_Level 06/11/1991 0          18.6      
Lake_Washington_Level 06/12/1991 0          18.6      
Lake_Washington_Level 06/13/1991 0          18.6      
Lake_Washington_Level 06/14/1991 0          18.6      
Lake_Washington_Level 06/15/1991 0          18.6      
Lake_Washington_Level 06/16/1991 0          18.6      
Lake_Washington_Level 06/17/1991 0          18.6      
Lake_Washington_Level 06/18/1991 0          18.6      
Lake_Washington_Level 06/19/1991 0          18.6      
Lake_Washington_Level 06/20/1991 0          18.62     
Lake_Washington_Level 06/21/1991 0          18.59     
Lake_Washington_Level 06/22/1991 0          18.6      
Lake_Washington_Level 06/23/1991 0          18.65     
Lake_Washington_Level 06/24/1991 0          18.67     
Lake_Washington_Level 06/25/1991 0          18.75     
Lake_Washington_Level 06/26/1991 0          18.7      
Lake_Washington_Level 06/27/1991 0          18.73     
Lake_Washington_Level 06/28/1991 0          18.75     
Lake_Washington_Level 06/29/1991 0          18.7      
Lake_Washington_Level 06/30/1991 0          18.7      
Lake_Washington_Level 07/01/1991 0          18.75     
Lake_Washington_Level 07/02/1991 0          18.75     
Lake_Washington_Level 07/03/1991 0          18.75     
Lake_Washington_Level 07/04/1991 0          18.7      
Lake_Washington_Level 07/05/1991 0          18.7      
Lake_Washington_Level 07/06/1991 0          18.75     
Lake_Washington_Level 07/07/1991 0          18.75     
Lake_Washington_Level 07/08/1991 0          18.75     
Lake_Washington_Level 07/09/1991 0          18.75     
Lake_Washington_Level 07/10/1991 0          18.75     
Lake_Washington_Level 07/11/1991 0          18.75     
Lake_Washington_Level 07/12/1991 0          18.75     
Lake_Washington_Level 07/13/1991 0          18.75     
Lake_Washington_Level 07/14/1991 0          18.66     
Lake_Washington_Level 07/15/1991 0          18.65     
Lake_Washington_Level 07/16/1991 0          18.75     
Lake_Washington_Level 07/17/1991 0          18.58     
Lake_Washington_Level 07/18/1991 0          18.55     
Lake_Washington_Level 07/19/1991 0          18.57     
Lake_Washington_Level 07/20/1991 0          18.53     
Lake_Washington_Level 07/21/1991 0          18.5      
Lake_Washington_Level 07/22/1991 0          18.5      
Lake_Washington_Level 07/23/1991 0          18.5      
Lake_Washington_Level 07/24/1991 0          18.49     
Lake_Washington_Level 07/25/1991 0          18.47     
Lake_Washington_Level 07/26/1991 0          18.41     
Lake_Washington_Level 07/27/1991 0          18.43     
Lake_Washington_Level 07/28/1991 0          18.4      
Lake_Washington_Level 07/29/1991 0          18.38     
Lake_Washington_Level 07/30/1991 0          18.38     
Lake_Washington_Level 07/31/1991 0          18.35     
Lake_Washington_Level 08/01/1991 0          18.29     
Lake_Washington_Level 08/02/1991 0          18.28     
Lake_Washington_Level 08/03/1991 0          18.25     
Lake_Washington_Level 08/04/1991 0          18.23     
Lake_Washington_Level 08/05/1991 0          18.22     
Lake_Washington_Level 08/06/1991 0          18.21     
Lake_Washington_Level 08/07/1991 0          18.17     
Lake_Washington_Level 08/08/1991 0          18.15     
Lake_Washington_Level 08/09/1991 0          18.12     
Lake_Washington_Level 08/10/1991 0          18.1      
Lake_Washington_Level 08/11/1991 0          18.08     
Lake_Washington_Level 08/12/1991 0          18.05     
Lake_Washington_Level 08/13/1991 0          18.02     
Lake_Washington_Level 08/14/1991 0          18        
Lake_Washington_Level 08/15/1991 0          17.96     
Lake_Washington_Level 08/16/1991 0          17.92     
Lake_Washington_Level 08/17/1991 0          17.89     
Lake_Washington_Level 08/18/1991 0          17.89     
Lake_Washington_Level 08/19/1991 0          17.86     
Lake_Washington_Level 08/20/1991 0          17.85     
Lake_Washington_Level 08/21/1991 0          17.82     
Lake_Washington_Level 08/22/1991 0          17.83     
Lake_Washington_Level 08/23/1991 0          17.78     
Lake_Washington_Level 08/24/1991 0          17.8      
Lake_Washington_Level 08/25/1991 0          17.76     
Lake_Washington_Level 08/26/1991 0          17.73     
Lake_Washington_Level 08/27/1991 0          17.7      
Lake_Washington_Level 08/28/1991 0          17.68     
Lake_Washington_Level 08/29/1991 0          17.65     
Lake_Washington_Level 08/30/1991 0          17.67     
Lake_Washington_Level 08/31/1991 0          17.67     
Lake_Washington_Level 09/01/1991 0          17.65     
Lake_Washington_Level 09/02/1991 0          17.62     
Lake_Washington_Level 09/03/1991 0          17.6      
Lake_Washington_Level 09/04/1991 0          17.58     
Lake_Washington_Level 09/05/1991 0          17.57     
Lake_Washington_Level 09/06/1991 0          17.55     
Lake_Washington_Level 09/07/1991 0          17.53     
Lake_Washington_Level 09/08/1991 0          17.5      
Lake_Washington_Level 09/09/1991 0          17.48     
Lake_Washington_Level 09/10/1991 0          17.46     
Lake_Washington_Level 09/11/1991 0          17.45     
Lake_Washington_Level 09/12/1991 0          17.45     
Lake_Washington_Level 09/13/1991 0          17.43     
Lake_Washington_Level 09/14/1991 0          17.4      
Lake_Washington_Level 09/15/1991 0          17.37     
Lake_Washington_Level 09/16/1991 0          17.36     
Lake_Washington_Level 09/17/1991 0          17.34     
Lake_Washington_Level 09/18/1991 0          17.34     
Lake_Washington_Level 09/19/1991 0          17.32     
Lake_Washington_Level 09/20/1991 0          17.3      
Lake_Washington_Level 09/21/1991 0          17.27     
Lake_Washington_Level 09/22/1991 0          17.24     
Lake_Washington_Level 09/23/1991 0          17.25     
Lake_Washington_Level 09/24/1991 0          17.23     
Lake_Washington_Level 09/25/1991 0          17.2      
Lake_Washington_Level 09/26/1991 0          17.18     
Lake_Washington_Level 09/27/1991 0          17.17     
Lake_Washington_Level 09/28/1991 0          17.14     
Lake_Washington_Level 09/29/1991 0          17.13     
Lake_Washington_Level 09/30/1991 0          17.12     
Lake_Washington_Level 10/01/1991 0          17.18     
Lake_Washington_Level 10/02/1991 0          17.17     
Lake_Washington_Level 10/03/1991 0          17.16     
Lake_Washington_Level 10/04/1991 0          17.12     
Lake_Washington_Level 10/05/1991 0          17.12     
Lake_Washington_Level 10/06/1991 0          17.11     
Lake_Washington_Level 10/07/1991 0          17.08     
Lake_Washington_Level 10/08/1991 0          17.08     
Lake_Washington_Level 10/09/1991 0          17.08     
Lake_Washington_Level 10/10/1991 0          17.08     
Lake_Washington_Level 10/11/1991 0          17.08     
Lake_Washington_Level 10/12/1991 0          17.07     
Lake_Washington_Level 10/13/1991 0          17.08     
Lake_Washington_Level 10/14/1991 0          17.07     
Lake_Washington_Level 10/15/1991 0          17.07     
Lake_Washington_Level 10/16/1991 0          17.07     
Lake_Washington_Level 10/17/1991 0          17.07     
Lake_Washington_Level 10/18/1991 0          17.06     
Lake_Washington_Level 10/19/1991 0          17.06     
Lake_Washington_Level 10/20/1991 0          17.05     
Lake_Washington_Level 10/21/1991 0          17.07     
Lake_Washington_Level 10/22/1991 0          17.07     
Lake_Washington_Level 10/23/1991 0          17.05     
Lake_Washington_Level 10/24/1991 0          17.07     
Lake_Washington_Level 10/25/1991 0          17.1      
Lake_Washington_Level 10/26/1991 0          17.11     
Lake_Washington_Level 10/27/1991 0          17.1      
Lake_Washington_Level 10/28/1991 0          17.16     
Lake_Washington_Level 10/29/1991 0          17.14     
Lake_Washington_Level 10/30/1991 0          17.14     
Lake_Washington_Level 10/31/1991 0          17.1      
Lake_Washington_Level 11/01/1991 0          17.13     
Lake_Washington_Level 11/02/1991 0          17.13     
Lake_Washington_Level 11/03/1991 0          17.12     
Lake_Washington_Level 11/04/1991 0          17.15     
Lake_Washington_Level 11/05/1991 0          17.19     
Lake_Washington_Level 11/06/1991 0          17.1      
Lake_Washington_Level 11/07/1991 0          17.06     
Lake_Washington_Level 11/08/1991 0          17.09     
Lake_Washington_Level 11/09/1991 0          17.07     
Lake_Washington_Level 11/10/1991 0          17.08     
Lake_Washington_Level 11/11/1991 0          17.04     
Lake_Washington_Level 11/12/1991 0          17.03     
Lake_Washington_Level 11/13/1991 0          17.02     
Lake_Washington_Level 11/14/1991 0          17        
Lake_Washington_Level 11/15/1991 0          16.98     
Lake_Washington_Level 11/16/1991 0          16.93     
Lake_Washington_Level 11/17/1991 0          16.95     
Lake_Washington_Level 11/18/1991 0          16.93     
Lake_Washington_Level 11/19/1991 0          16.92     
Lake_Washington_Level 11/20/1991 0          16.91     
Lake_Washington_Level 11/21/1991 0          16.9      
Lake_Washington_Level 11/22/1991 0          16.91     
Lake_Washington_Level 11/23/1991 0          16.88     
Lake_Washington_Level 11/24/1991 0          16.85     
Lake_Washington_Level 11/25/1991 0          16.84     
Lake_Washington_Level 11/26/1991 0          16.82     
Lake_Washington_Level 11/27/1991 0          16.81     
Lake_Washington_Level 11/28/1991 0          16.79     
Lake_Washington_Level 11/29/1991 0          16.78     
Lake_Washington_Level 11/30/1991 0          16.75     
Lake_Washington_Level 12/01/1991 0          16.75     
Lake_Washington_Level 12/02/1991 0          16.75     
Lake_Washington_Level 12/03/1991 0          16.75     
Lake_Washington_Level 12/04/1991 0          16.75     
Lake_Washington_Level 12/05/1991 0          16.75     
Lake_Washington_Level 12/06/1991 0          16.75     
Lake_Washington_Level 12/07/1991 0          16.75     
Lake_Washington_Level 12/08/1991 0          16.75     
Lake_Washington_Level 12/09/1991 0          16.75     
Lake_Washington_Level 12/10/1991 0          16.75     
Lake_Washington_Level 12/11/1991 0          16.75     
Lake_Washington_Level 12/12/1991 0          16.75     
Lake_Washington_Level 12/13/1991 0          16.75     
Lake_Washington_Level 12/14/1991 0          16.75     
Lake_Washington_Level 12/15/1991 0          16.75     
Lake_Washington_Level 12/16/1991 0          16.75     
Lake_Washington_Level 12/17/1991 0          16.75     
Lake_Washington_Level 12/18/1991 0          16.75     
Lake_Washington_Level 12/19/1991 0          16.75     
Lake_Washington_Level 12/20/1991 0          16.75     
Lake_Washington_Level 12/21/1991 0          16.75     
Lake_Washington_Level 12/22/1991 0          16.75     
Lake_Washington_Level 12/23/1991 0          16.75     
Lake_Washington_Level 12/24/1991 0          16.75     
Lake_Washington_Level 12/25/1991 0          16.75     
Lake_Washington_Level 12/26/1991 0          16.75     
Lake_Washington_Level 12/27/1991 0          16.75     
Lake_Washington_Level 12/28/1991 0          16.75     
Lake_Washington_Level 12/29/1991 0          16.75     
Lake_Washington_Level 12/30/1991 0          16.75     
Lake_Washington_Level 12/31/1991 0          16.75     
Lake_Washington_Level 01/01/1992 0          16.75     
Lake_Washington_Level 01/02/1992 0          16.75     
Lake_Washington_Level 01/03/1992 0          16.75     
Lake_Washington_Level 01/04/1992 0          16.75     
Lake_Washington_Level 01/05/1992 0          16.75     
Lake_Washington_Level 01/06/1992 0          16.75     
Lake_Washington_Level 01/07/1992 0          16.75     
Lake_Washington_Level 01/08/1992 0          16.75     
Lake_Washington_Level 01/09/1992 0          16.75     
Lake_Washington_Level 01/10/1992 0          16.75     
Lake_Washington_Level 01/11/1992 0          16.75     
Lake_Washington_Level 01/12/1992 0          16.75     
Lake_Washington_Level 01/13/1992 0          16.75     
Lake_Washington_Level 01/14/1992 0          16.75     
Lake_Washington_Level 01/15/1992 0          16.75     
Lake_Washington_Level 01/16/1992 0          16.75     
Lake_Washington_Level 01/17/1992 0          16.75     
Lake_Washington_Level 01/18/1992 0          16.75     
Lake_Washington_Level 01/19/1992 0          16.75     
Lake_Washington_Level 01/20/1992 0          16.75     
Lake_Washington_Level 01/21/1992 0          16.75     
Lake_Washington_Level 01/22/1992 0          16.75     
Lake_Washington_Level 01/23/1992 0          16.75     
Lake_Washington_Level 01/24/1992 0          16.75     
Lake_Washington_Level 01/25/1992 0          16.75     
Lake_Washington_Level 01/26/1992 0          16.75     
Lake_Washington_Level 01/27/1992 0          16.75     
Lake_Washington_Level 01/28/1992 0          16.75     
Lake_Washington_Level 01/29/1992 0          16.75     
Lake_Washington_Level 01/30/1992 0          16.75     
Lake_Washington_Level 01/31/1992 0          16.75     
Lake_Washington_Level 02/01/1992 0          16.75     
Lake_Washington_Level 02/02/1992 0          16.75     
Lake_Washington_Level 02/03/1992 0          16.75     
Lake_Washington_Level 02/04/1992 0          16.75     
Lake_Washington_Level 02/05/1992 0          16.75     
Lake_Washington_Level 02/06/1992 0          16.75     
Lake_Washington_Level 02/07/1992 0          16.75     
Lake_Washington_Level 02/08/1992 0          16.75     
Lake_Washington_Level 02/09/1992 0          16.75     
Lake_Washington_Level 02/10/1992 0          16.75     
Lake_Washington_Level 02/11/1992 0          16.75     
Lake_Washington_Level 02/12/1992 0          16.75     
Lake_Washington_Level 02/13/1992 0          16.75     
Lake_Washington_Level 02/14/1992 0          16.75     
Lake_Washington_Level 02/15/1992 0          16.75     
Lake_Washington_Level 02/16/1992 0          16.75     
Lake_Washington_Level 02/17/1992 0          16.8      
Lake_Washington_Level 02/18/1992 0          16.82     
Lake_Washington_Level 02/19/1992 0          16.85     
Lake_Washington_Level 02/20/1992 0          16.87     
Lake_Washington_Level 02/21/1992 0          16.9      
Lake_Washington_Level 02/22/1992 0          16.9225   
Lake_Washington_Level 02/23/1992 0          16.945    
Lake_Washington_Level 02/24/1992 0          16.9675   
Lake_Washington_Level 02/25/1992 0          16.99     
Lake_Washington_Level 02/26/1992 0          17.02     
Lake_Washington_Level 02/27/1992 0          17.04     
Lake_Washington_Level 02/28/1992 0          17.07     
Lake_Washington_Level 02/29/1992 0          17.09     
Lake_Washington_Level 03/01/1992 0          17.12     
Lake_Washington_Level 03/02/1992 0          17.14     
Lake_Washington_Level 03/03/1992 0          17.16     
Lake_Washington_Level 03/04/1992 0          17.19     
Lake_Washington_Level 03/05/1992 0          17.21     
Lake_Washington_Level 03/06/1992 0          17.24     
Lake_Washington_Level 03/07/1992 0          17.26     
Lake_Washington_Level 03/08/1992 0          17.3      
Lake_Washington_Level 03/09/1992 0          17.31     
Lake_Washington_Level 03/10/1992 0          17.33     
Lake_Washington_Level 03/11/1992 0          17.36     
Lake_Washington_Level 03/12/1992 0          17.38     
Lake_Washington_Level 03/13/1992 0          17.41     
Lake_Washington_Level 03/14/1992 0          17.43     
Lake_Washington_Level 03/15/1992 0          17.46     
Lake_Washington_Level 03/16/1992 0          17.48     
Lake_Washington_Level 03/17/1992 0          17.5      
Lake_Washington_Level 03/18/1992 0          17.53     
Lake_Washington_Level 03/19/1992 0          17.55     
Lake_Washington_Level 03/20/1992 0          17.58     
Lake_Washington_Level 03/21/1992 0          17.6      
Lake_Washington_Level 03/22/1992 0          17.63     
Lake_Washington_Level 03/23/1992 0          17.65     
Lake_Washington_Level 03/24/1992 0          17.68     
Lake_Washington_Level 03/25/1992 0          17.7      
Lake_Washington_Level 03/26/1992 0          17.72     
Lake_Washington_Level 03/27/1992 0          17.75     
Lake_Washington_Level 03/28/1992 0          17.77     
Lake_Washington_Level 03/29/1992 0          17.8      
Lake_Washington_Level 03/30/1992 0          17.82     
Lake_Washington_Level 03/31/1992 0          17.85     
Lake_Washington_Level 04/01/1992 0          17.87     
Lake_Washington_Level 04/02/1992 0          17.89     
Lake_Washington_Level 04/03/1992 0          17.92     
Lake_Washington_Level 04/04/1992 0          17.945    
Lake_Washington_Level 04/05/1992 0          17.97     
Lake_Washington_Level 04/06/1992 0          17.995    
Lake_Washington_Level 04/07/1992 0          18.02     
Lake_Washington_Level 04/08/1992 0          18.04     
Lake_Washington_Level 04/09/1992 0          18.06     
Lake_Washington_Level 04/10/1992 0          18.09     
Lake_Washington_Level 04/11/1992 0          18.12     
Lake_Washington_Level 04/12/1992 0          18.13     
Lake_Washington_Level 04/13/1992 0          18.16     
Lake_Washington_Level 04/14/1992 0          18.19     
Lake_Washington_Level 04/15/1992 0          18.21     
Lake_Washington_Level 04/16/1992 0          18.32     
Lake_Washington_Level 04/17/1992 0          18.48     
Lake_Washington_Level 04/18/1992 0          18.6      
Lake_Washington_Level 04/19/1992 0          18.6      
Lake_Washington_Level 04/20/1992 0          18.6      
Lake_Washington_Level 04/21/1992 0          18.6      
Lake_Washington_Level 04/22/1992 0          18.6      
Lake_Washington_Level 04/23/1992 0          18.6      
Lake_Washington_Level 04/24/1992 0          18.6      
Lake_Washington_Level 04/25/1992 0          18.6      
Lake_Washington_Level 04/26/1992 0          18.6      
Lake_Washington_Level 04/27/1992 0          18.63     
Lake_Washington_Level 04/28/1992 0          18.61     
Lake_Washington_Level 04/29/1992 0          18.63     
Lake_Washington_Level 04/30/1992 0          18.61     
Lake_Washington_Level 05/01/1992 0          18.6      
Lake_Washington_Level 05/02/1992 0          18.63     
Lake_Washington_Level 05/03/1992 0          18.63     
Lake_Washington_Level 05/04/1992 0          18.65     
Lake_Washington_Level 05/05/1992 0          18.65     
Lake_Washington_Level 05/06/1992 0          18.67     
Lake_Washington_Level 05/07/1992 0          18.68     
Lake_Washington_Level 05/08/1992 0          18.7      
Lake_Washington_Level 05/09/1992 0          18.71     
Lake_Washington_Level 05/10/1992 0          18.72     
Lake_Washington_Level 05/11/1992 0          18.75     
Lake_Washington_Level 05/12/1992 0          18.75     
Lake_Washington_Level 05/13/1992 0          18.75     
Lake_Washington_Level 05/14/1992 0          18.75     
Lake_Washington_Level 05/15/1992 0          18.75     
Lake_Washington_Level 05/16/1992 0          18.75     
Lake_Washington_Level 05/17/1992 0          18.75     
Lake_Washington_Level 05/18/1992 0          18.75     
Lake_Washington_Level 05/19/1992 0          18.75     
Lake_Washington_Level 05/20/1992 0          18.75     
Lake_Washington_Level 05/21/1992 0          18.75     
Lake_Washington_Level 05/22/1992 0          18.71     
Lake_Washington_Level 05/23/1992 0          18.75     
Lake_Washington_Level 05/24/1992 0          18.75     
Lake_Washington_Level 05/25/1992 0          18.7      
Lake_Washington_Level 05/26/1992 0          18.7      
Lake_Washington_Level 05/27/1992 0          18.71     
Lake_Washington_Level 05/28/1992 0          18.72     
Lake_Washington_Level 05/29/1992 0          18.75     
Lake_Washington_Level 05/30/1992 0          18.75     
Lake_Washington_Level 05/31/1992 0          18.75     
Lake_Washington_Level 06/01/1992 0          18.75     
Lake_Washington_Level 06/02/1992 0          18.75     
Lake_Washington_Level 06/03/1992 0          18.75     
Lake_Washington_Level 06/04/1992 0          18.72     
Lake_Washington_Level 06/05/1992 0          18.7      
Lake_Washington_Level 06/06/1992 0          18.7      
Lake_Washington_Level 06/07/1992 0          18.7      
Lake_Washington_Level 06/08/1992 0          18.7      
Lake_Washington_Level 06/09/1992 0          18.67     
Lake_Washington_Level 06/10/1992 0          18.67     
Lake_Washington_Level 06/11/1992 0          18.65     
Lake_Washington_Level 06/12/1992 0          18.65     
Lake_Washington_Level 06/13/1992 0          18.65     
Lake_Washington_Level 06/14/1992 0          18.68     
Lake_Washington_Level 06/15/1992 0          18.7      
Lake_Washington_Level 06/16/1992 0          18.69     
Lake_Washington_Level 06/17/1992 0          18.68     
Lake_Washington_Level 06/18/1992 0          18.71     
Lake_Washington_Level 06/19/1992 0          18.69     
Lake_Washington_Level 06/20/1992 0          18.67     
Lake_Washington_Level 06/21/1992 0          18.66     
Lake_Washington_Level 06/22/1992 0          18.64     
Lake_Washington_Level 06/23/1992 0          18.65     
Lake_Washington_Level 06/24/1992 0          18.65     
Lake_Washington_Level 06/25/1992 0          18.64     
Lake_Washington_Level 06/26/1992 0          18.63     
Lake_Washington_Level 06/27/1992 0          18.54     
Lake_Washington_Level 06/28/1992 0          18.52     
Lake_Washington_Level 06/29/1992 0          18.55     
Lake_Washington_Level 06/30/1992 0          18.56     
Lake_Washington_Level 07/01/1992 0          18.56     
Lake_Washington_Level 07/02/1992 0          18.55     
Lake_Washington_Level 07/03/1992 0          18.51     
Lake_Washington_Level 07/04/1992 0          18.5      
Lake_Washington_Level 07/05/1992 0          18.59     
Lake_Washington_Level 07/06/1992 0          18.63     
Lake_Washington_Level 07/07/1992 0          18.6      
Lake_Washington_Level 07/08/1992 0          18.62     
Lake_Washington_Level 07/09/1992 0          18.58     
Lake_Washington_Level 07/10/1992 0          18.59     
Lake_Washington_Level 07/11/1992 0          18.53     
Lake_Washington_Level 07/12/1992 0          18.5      
Lake_Washington_Level 07/13/1992 0          18.52     
Lake_Washington_Level 07/14/1992 0          18.49     
Lake_Washington_Level 07/15/1992 0          18.48     
Lake_Washington_Level 07/16/1992 0          18.46     
Lake_Washington_Level 07/17/1992 0          18.4      
Lake_Washington_Level 07/18/1992 0          18.4      
Lake_Washington_Level 07/19/1992 0          18.39     
Lake_Washington_Level 07/20/1992 0          18.41     
Lake_Washington_Level 07/21/1992 0          18.41     
Lake_Washington_Level 07/22/1992 0          18.35     
Lake_Washington_Level 07/23/1992 0          18.33     
Lake_Washington_Level 07/24/1992 0          18.35     
Lake_Washington_Level 07/25/1992 0          18.29     
Lake_Washington_Level 07/26/1992 0          18.25     
Lake_Washington_Level 07/27/1992 0          18.19     
Lake_Washington_Level 07/28/1992 0          18.15     
Lake_Washington_Level 07/29/1992 0          18.15     
Lake_Washington_Level 07/30/1992 0          18.15     
Lake_Washington_Level 07/31/1992 0          18.12     
Lake_Washington_Level 08/01/1992 0          18.1      
Lake_Washington_Level 08/02/1992 0          18.06     
Lake_Washington_Level 08/03/1992 0          18.05     
Lake_Washington_Level 08/04/1992 0          17.95     
Lake_Washington_Level 08/05/1992 0          17.96     
Lake_Washington_Level 08/06/1992 0          17.96     
Lake_Washington_Level 08/07/1992 0          17.97     
Lake_Washington_Level 08/08/1992 0          17.97     
Lake_Washington_Level 08/09/1992 0          17.95     
Lake_Washington_Level 08/10/1992 0          17.92     
Lake_Washington_Level 08/11/1992 0          17.91     
Lake_Washington_Level 08/12/1992 0          17.87     
Lake_Washington_Level 08/13/1992 0          17.86     
Lake_Washington_Level 08/14/1992 0          17.85     
Lake_Washington_Level 08/15/1992 0          17.85     
Lake_Washington_Level 08/16/1992 0          17.8      
Lake_Washington_Level 08/17/1992 0          17.78     
Lake_Washington_Level 08/18/1992 0          17.77     
Lake_Washington_Level 08/19/1992 0          17.75     
Lake_Washington_Level 08/20/1992 0          17.72     
Lake_Washington_Level 08/21/1992 0          18.65     
Lake_Washington_Level 08/22/1992 0          17.6      
Lake_Washington_Level 08/23/1992 0          17.6      
Lake_Washington_Level 08/24/1992 0          17.56     
Lake_Washington_Level 08/25/1992 0          17.54     
Lake_Washington_Level 08/26/1992 0          17.5      
Lake_Washington_Level 08/27/1992 0          17.5      
Lake_Washington_Level 08/28/1992 0          17.45     
Lake_Washington_Level 08/29/1992 0          17.45     
Lake_Washington_Level 08/30/1992 0          17.42     
Lake_Washington_Level 08/31/1992 0          17.35     
Lake_Washington_Level 09/01/1992 0          17.3      
Lake_Washington_Level 09/02/1992 0          17.3      
Lake_Washington_Level 09/03/1992 0          17.3      
Lake_Washington_Level 09/04/1992 0          17.33     
Lake_Washington_Level 09/05/1992 0          17.35     
Lake_Washington_Level 09/06/1992 0          17.29     
Lake_Washington_Level 09/07/1992 0          17.3      
Lake_Washington_Level 09/08/1992 0          17.22     
Lake_Washington_Level 09/09/1992 0          17.2      
Lake_Washington_Level 09/10/1992 0          17.19     
Lake_Washington_Level 09/11/1992 0          17.17     
Lake_Washington_Level 09/12/1992 0          17.16     
Lake_Washington_Level 09/13/1992 0          17.15     
Lake_Washington_Level 09/14/1992 0          17.1      
Lake_Washington_Level 09/15/1992 0          17.08     
Lake_Washington_Level 09/16/1992 0          17.05     
Lake_Washington_Level 09/17/1992 0          17.02     
Lake_Washington_Level 09/18/1992 0          17.01     
Lake_Washington_Level 09/19/1992 0          17        
Lake_Washington_Level 09/20/1992 0          17        
Lake_Washington_Level 09/21/1992 0          17        
Lake_Washington_Level 09/22/1992 0          16.97     
Lake_Washington_Level 09/23/1992 0          16.98     
Lake_Washington_Level 09/24/1992 0          17.06     
Lake_Washington_Level 09/25/1992 0          17.08     
Lake_Washington_Level 09/26/1992 0          17.1      
Lake_Washington_Level 09/27/1992 0          17.13     
Lake_Washington_Level 09/28/1992 0          17.13     
Lake_Washington_Level 09/29/1992 0          17.13     
Lake_Washington_Level 09/30/1992 0          17.13     
Lake_Washington_Level 10/01/1992 0          17.13     
Lake_Washington_Level 10/02/1992 0          17.11     
Lake_Washington_Level 10/03/1992 0          17.15     
Lake_Washington_Level 10/04/1992 0          17.15     
Lake_Washington_Level 10/05/1992 0          17.14     
Lake_Washington_Level 10/06/1992 0          17.11     
Lake_Washington_Level 10/07/1992 0          17.13     
Lake_Washington_Level 10/08/1992 0          17.13     
Lake_Washington_Level 10/09/1992 0          17.1      
Lake_Washington_Level 10/10/1992 0          17.1      
Lake_Washington_Level 10/11/1992 0          17.1      
Lake_Washington_Level 10/12/1992 0          17.1      
Lake_Washington_Level 10/13/1992 0          17.1      
Lake_Washington_Level 10/14/1992 0          17.1      
Lake_Washington_Level 10/15/1992 0          17.1      
Lake_Washington_Level 10/16/1992 0          17.085    
Lake_Washington_Level 10/17/1992 0          17.07     
Lake_Washington_Level 10/18/1992 0          17.1      
Lake_Washington_Level 10/19/1992 0          17.12     
Lake_Washington_Level 10/20/1992 0          17.15     
Lake_Washington_Level 10/21/1992 0          17.18     
Lake_Washington_Level 10/22/1992 0          17.18     
Lake_Washington_Level 10/23/1992 0          17.19     
Lake_Washington_Level 10/24/1992 0          17.2      
Lake_Washington_Level 10/25/1992 0          17.2      
Lake_Washington_Level 10/26/1992 0          17.205    
Lake_Washington_Level 10/27/1992 0          17.21     
Lake_Washington_Level 10/28/1992 0          17.22     
Lake_Washington_Level 10/29/1992 0          17.23     
Lake_Washington_Level 10/30/1992 0          17.22     
Lake_Washington_Level 10/31/1992 0          17.2      
Lake_Washington_Level 11/01/1992 0          17.19     
Lake_Washington_Level 11/02/1992 0          17.17     
Lake_Washington_Level 11/03/1992 0          17.16     
Lake_Washington_Level 11/04/1992 0          17.14     
Lake_Washington_Level 11/05/1992 0          17.13     
Lake_Washington_Level 11/06/1992 0          17.11     
Lake_Washington_Level 11/07/1992 0          17.1      
Lake_Washington_Level 11/08/1992 0          17.08     
Lake_Washington_Level 11/09/1992 0          17.07     
Lake_Washington_Level 11/10/1992 0          17.06     
Lake_Washington_Level 11/11/1992 0          17.04     
Lake_Washington_Level 11/12/1992 0          17.03     
Lake_Washington_Level 11/13/1992 0          17.01     
Lake_Washington_Level 11/14/1992 0          17        
Lake_Washington_Level 11/15/1992 0          16.98     
Lake_Washington_Level 11/16/1992 0          16.96     
Lake_Washington_Level 11/17/1992 0          16.95     
Lake_Washington_Level 11/18/1992 0          16.94     
Lake_Washington_Level 11/19/1992 0          16.92     
Lake_Washington_Level 11/20/1992 0          16.9      
Lake_Washington_Level 11/21/1992 0          16.89     
Lake_Washington_Level 11/22/1992 0          16.88     
Lake_Washington_Level 11/23/1992 0          16.86     
Lake_Washington_Level 11/24/1992 0          16.85     
Lake_Washington_Level 11/25/1992 0          16.835    
Lake_Washington_Level 11/26/1992 0          16.82     
Lake_Washington_Level 11/27/1992 0          16.805    
Lake_Washington_Level 11/28/1992 0          16.79     
Lake_Washington_Level 11/29/1992 0          16.785    
Lake_Washington_Level 11/30/1992 0          16.78     
Lake_Washington_Level 12/01/1992 0          16.75     
Lake_Washington_Level 12/02/1992 0          16.75     
Lake_Washington_Level 12/03/1992 0          16.75     
Lake_Washington_Level 12/04/1992 0          16.75     
Lake_Washington_Level 12/05/1992 0          16.75     
Lake_Washington_Level 12/06/1992 0          16.75     
Lake_Washington_Level 12/07/1992 0          16.75     
Lake_Washington_Level 12/08/1992 0          16.75     
Lake_Washington_Level 12/09/1992 0          16.75     
Lake_Washington_Level 12/10/1992 0          16.75     
Lake_Washington_Level 12/11/1992 0          16.75     
Lake_Washington_Level 12/12/1992 0          16.75     
Lake_Washington_Level 12/13/1992 0          16.75     
Lake_Washington_Level 12/14/1992 0          16.75     
Lake_Washington_Level 12/15/1992 0          16.75     
Lake_Washington_Level 12/16/1992 0          16.75     
Lake_Washington_Level 12/17/1992 0          16.75     
Lake_Washington_Level 12/18/1992 0          16.75     
Lake_Washington_Level 12/19/1992 0          16.75     
Lake_Washington_Level 12/20/1992 0          16.75     
Lake_Washington_Level 12/21/1992 0          16.75     
Lake_Washington_Level 12/22/1992 0          16.75     
Lake_Washington_Level 12/23/1992 0          16.75     
Lake_Washington_Level 12/24/1992 0          16.75     
Lake_Washington_Level 12/25/1992 0          16.75     
Lake_Washington_Level 12/26/1992 0          16.75     
Lake_Washington_Level 12/27/1992 0          16.75     
Lake_Washington_Level 12/28/1992 0          16.75     
Lake_Washington_Level 12/29/1992 0          16.75     
Lake_Washington_Level 12/30/1992 0          16.75     
Lake_Washington_Level 12/31/1992 0          16.75     
Lake_Washington_Level 01/01/1993 0          16.75     
Lake_Washington_Level 01/02/1993 0          16.75     
Lake_Washington_Level 01/03/1993 0          16.75     
Lake_Washington_Level 01/04/1993 0          16.75     
Lake_Washington_Level 01/05/1993 0          16.75     
Lake_Washington_Level 01/06/1993 0          16.75     
Lake_Washington_Level 01/07/1993 0          16.75     
Lake_Washington_Level 01/08/1993 0          16.75     
Lake_Washington_Level 01/09/1993 0          16.75     
Lake_Washington_Level 01/10/1993 0          16.75     
Lake_Washington_Level 01/11/1993 0          16.75     
Lake_Washington_Level 01/12/1993 0          16.75     
Lake_Washington_Level 01/13/1993 0          16.75     
Lake_Washington_Level 01/14/1993 0          16.75     
Lake_Washington_Level 01/15/1993 0          16.75     
Lake_Washington_Level 01/16/1993 0          16.75     
Lake_Washington_Level 01/17/1993 0          16.75     
Lake_Washington_Level 01/18/1993 0          16.75     
Lake_Washington_Level 01/19/1993 0          16.75     
Lake_Washington_Level 01/20/1993 0          16.75     
Lake_Washington_Level 01/21/1993 0          16.75     
Lake_Washington_Level 01/22/1993 0          16.75     
Lake_Washington_Level 01/23/1993 0          16.75     
Lake_Washington_Level 01/24/1993 0          16.75     
Lake_Washington_Level 01/25/1993 0          16.75     
Lake_Washington_Level 01/26/1993 0          16.75     
Lake_Washington_Level 01/27/1993 0          16.75     
Lake_Washington_Level 01/28/1993 0          16.75     
Lake_Washington_Level 01/29/1993 0          16.75     
Lake_Washington_Level 01/30/1993 0          16.75     
Lake_Washington_Level 01/31/1993 0          16.75     
Lake_Washington_Level 02/01/1993 0          16.75     
Lake_Washington_Level 02/02/1993 0          16.75     
Lake_Washington_Level 02/03/1993 0          16.75     
Lake_Washington_Level 02/04/1993 0          16.75     
Lake_Washington_Level 02/05/1993 0          16.75     
Lake_Washington_Level 02/06/1993 0          16.75     
Lake_Washington_Level 02/07/1993 0          16.75     
Lake_Washington_Level 02/08/1993 0          16.75     
Lake_Washington_Level 02/09/1993 0          16.75     
Lake_Washington_Level 02/10/1993 0          16.75     
Lake_Washington_Level 02/11/1993 0          16.75     
Lake_Washington_Level 02/12/1993 0          16.75     
Lake_Washington_Level 02/13/1993 0          16.75     
Lake_Washington_Level 02/14/1993 0          16.75     
Lake_Washington_Level 02/15/1993 0          16.75     
Lake_Washington_Level 02/16/1993 0          16.77     
Lake_Washington_Level 02/17/1993 0          16.8      
Lake_Washington_Level 02/18/1993 0          16.82     
Lake_Washington_Level 02/19/1993 0          16.85     
Lake_Washington_Level 02/20/1993 0          16.87     
Lake_Washington_Level 02/21/1993 0          16.9      
Lake_Washington_Level 02/22/1993 0          16.92     
Lake_Washington_Level 02/23/1993 0          16.94     
Lake_Washington_Level 02/24/1993 0          16.94     
Lake_Washington_Level 02/25/1993 0          16.96     
Lake_Washington_Level 02/26/1993 0          17        
Lake_Washington_Level 02/27/1993 0          17.03     
Lake_Washington_Level 02/28/1993 0          17.04     
Lake_Washington_Level 03/01/1993 0          17.09     
Lake_Washington_Level 03/02/1993 0          17.12     
Lake_Washington_Level 03/03/1993 0          17.14     
Lake_Washington_Level 03/04/1993 0          17.15667  
Lake_Washington_Level 03/05/1993 0          17.17333  
Lake_Washington_Level 03/06/1993 0          17.19     
Lake_Washington_Level 03/07/1993 0          17.22     
Lake_Washington_Level 03/08/1993 0          17.27     
Lake_Washington_Level 03/09/1993 0          17.29     
Lake_Washington_Level 03/10/1993 0          17.32     
Lake_Washington_Level 03/11/1993 0          17.33     
Lake_Washington_Level 03/12/1993 0          17.37     
Lake_Washington_Level 03/13/1993 0          17.37     
Lake_Washington_Level 03/14/1993 0          17.42     
Lake_Washington_Level 03/15/1993 0          17.44     
Lake_Washington_Level 03/16/1993 0          17.47     
Lake_Washington_Level 03/17/1993 0          17.49     
Lake_Washington_Level 03/18/1993 0          17.51     
Lake_Washington_Level 03/19/1993 0          17.54     
Lake_Washington_Level 03/20/1993 0          17.5775   
Lake_Washington_Level 03/21/1993 0          17.615    
Lake_Washington_Level 03/22/1993 0          17.6525   
Lake_Washington_Level 03/23/1993 0          17.69     
Lake_Washington_Level 03/24/1993 0          17.66     
Lake_Washington_Level 03/25/1993 0          17.69     
Lake_Washington_Level 03/26/1993 0          17.71     
Lake_Washington_Level 03/27/1993 0          17.72     
Lake_Washington_Level 03/28/1993 0          17.76     
Lake_Washington_Level 03/29/1993 0          17.79     
Lake_Washington_Level 03/30/1993 0          17.81     
Lake_Washington_Level 03/31/1993 0          17.84     
Lake_Washington_Level 04/01/1993 0          17.86     
Lake_Washington_Level 04/02/1993 0          17.875    
Lake_Washington_Level 04/03/1993 0          17.91     
Lake_Washington_Level 04/04/1993 0          17.93     
Lake_Washington_Level 04/05/1993 0          17.96     
Lake_Washington_Level 04/06/1993 0          17.98     
Lake_Washington_Level 04/07/1993 0          18.01     
Lake_Washington_Level 04/08/1993 0          18.03     
Lake_Washington_Level 04/09/1993 0          18.06     
Lake_Washington_Level 04/10/1993 0          18.08     
Lake_Washington_Level 04/11/1993 0          18.15     
Lake_Washington_Level 04/12/1993 0          18.13     
Lake_Washington_Level 04/13/1993 0          18.18     
Lake_Washington_Level 04/14/1993 0          18.18     
Lake_Washington_Level 04/15/1993 0          18.2      
Lake_Washington_Level 04/16/1993 0          18.23     
Lake_Washington_Level 04/17/1993 0          18.25     
Lake_Washington_Level 04/18/1993 0          18.28     
Lake_Washington_Level 04/19/1993 0          18.3      
Lake_Washington_Level 04/20/1993 0          18.33     
Lake_Washington_Level 04/21/1993 0          18.35     
Lake_Washington_Level 04/22/1993 0          18.38     
Lake_Washington_Level 04/23/1993 0          18.4      
Lake_Washington_Level 04/24/1993 0          18.43     
Lake_Washington_Level 04/25/1993 0          18.45     
Lake_Washington_Level 04/26/1993 0          18.48     
Lake_Washington_Level 04/27/1993 0          18.5      
Lake_Washington_Level 04/28/1993 0          18.53     
Lake_Washington_Level 04/29/1993 0          18.55     
Lake_Washington_Level 04/30/1993 0          18.58     
Lake_Washington_Level 05/01/1993 0          18.6      
Lake_Washington_Level 05/02/1993 0          18.6      
Lake_Washington_Level 05/03/1993 0          18.6      
Lake_Washington_Level 05/04/1993 0          18.6      
Lake_Washington_Level 05/05/1993 0          18.6      
Lake_Washington_Level 05/06/1993 0          18.6      
Lake_Washington_Level 05/07/1993 0          18.6      
Lake_Washington_Level 05/08/1993 0          18.6      
Lake_Washington_Level 05/09/1993 0          18.6      
Lake_Washington_Level 05/10/1993 0          18.6      
Lake_Washington_Level 05/11/1993 0          18.6      
Lake_Washington_Level 05/12/1993 0          18.6      
Lake_Washington_Level 05/13/1993 0          18.6      
Lake_Washington_Level 05/14/1993 0          18.6      
Lake_Washington_Level 05/15/1993 0          18.6      
Lake_Washington_Level 05/16/1993 0          18.6      
Lake_Washington_Level 05/17/1993 0          18.6      
Lake_Washington_Level 05/18/1993 0          18.6      
Lake_Washington_Level 05/19/1993 0          18.6      
Lake_Washington_Level 05/20/1993 0          18.6      
Lake_Washington_Level 05/21/1993 0          18.6      
Lake_Washington_Level 05/22/1993 0          18.6      
Lake_Washington_Level 05/23/1993 0          18.6      
Lake_Washington_Level 05/24/1993 0          18.6      
Lake_Washington_Level 05/25/1993 0          18.6      
Lake_Washington_Level 05/26/1993 0          18.6      
Lake_Washington_Level 05/27/1993 0          18.6      
Lake_Washington_Level 05/28/1993 0          18.6      
Lake_Washington_Level 05/29/1993 0          18.6      
Lake_Washington_Level 05/30/1993 0          18.6      
Lake_Washington_Level 05/31/1993 0          18.6      
Lake_Washington_Level 06/01/1993 0          18.75     
Lake_Washington_Level 06/02/1993 0          18.75     
Lake_Washington_Level 06/03/1993 0          18.75     
Lake_Washington_Level 06/04/1993 0          18.75     
Lake_Washington_Level 06/05/1993 0          18.75     
Lake_Washington_Level 06/06/1993 0          18.75     
Lake_Washington_Level 06/07/1993 0          18.75     
Lake_Washington_Level 06/08/1993 0          18.75     
Lake_Washington_Level 06/09/1993 0          18.75     
Lake_Washington_Level 06/10/1993 0          18.75     
Lake_Washington_Level 06/11/1993 0          18.75     
Lake_Washington_Level 06/12/1993 0          18.6      
Lake_Washington_Level 06/13/1993 0          18.6      
Lake_Washington_Level 06/14/1993 0          18.6      
Lake_Washington_Level 06/15/1993 0          18.6      
Lake_Washington_Level 06/16/1993 0          18.6      
Lake_Washington_Level 06/17/1993 0          18.65     
Lake_Washington_Level 06/18/1993 0          18.67     
Lake_Washington_Level 06/19/1993 0          18.7      
Lake_Washington_Level 06/20/1993 0          18.7      
Lake_Washington_Level 06/21/1993 0          18.75     
Lake_Washington_Level 06/22/1993 0          18.75     
Lake_Washington_Level 06/23/1993 0          18.7      
Lake_Washington_Level 06/24/1993 0          18.75     
Lake_Washington_Level 06/25/1993 0          18.75     
Lake_Washington_Level 06/26/1993 0          18.75     
Lake_Washington_Level 06/27/1993 0          18.75     
Lake_Washington_Level 06/28/1993 0          18.75     
Lake_Washington_Level 06/29/1993 0          18.75     
Lake_Washington_Level 06/30/1993 0          18.75     
Lake_Washington_Level 07/01/1993 0          18.7      
Lake_Washington_Level 07/02/1993 0          18.7      
Lake_Washington_Level 07/03/1993 0          18.7      
Lake_Washington_Level 07/04/1993 0          18.7      
Lake_Washington_Level 07/05/1993 0          18.7      
Lake_Washington_Level 07/06/1993 0          18.7      
Lake_Washington_Level 07/07/1993 0          18.7      
Lake_Washington_Level 07/08/1993 0          18.7      
Lake_Washington_Level 07/09/1993 0          18.65     
Lake_Washington_Level 07/10/1993 0          18.6      
Lake_Washington_Level 07/11/1993 0          18.6      
Lake_Washington_Level 07/12/1993 0          18.6      
Lake_Washington_Level 07/13/1993 0          18.6      
Lake_Washington_Level 07/14/1993 0          18.6      
Lake_Washington_Level 07/15/1993 0          18.7      
Lake_Washington_Level 07/16/1993 0          18.7      
Lake_Washington_Level 07/17/1993 0          18.7      
Lake_Washington_Level 07/18/1993 0          18.69     
Lake_Washington_Level 07/19/1993 0          18.65     
Lake_Washington_Level 07/20/1993 0          18.7      
Lake_Washington_Level 07/21/1993 0          18.7      
Lake_Washington_Level 07/22/1993 0          18.65     
Lake_Washington_Level 07/23/1993 0          18.65     
Lake_Washington_Level 07/24/1993 0          18.6625   
Lake_Washington_Level 07/25/1993 0          18.675    
Lake_Washington_Level 07/26/1993 0          18.6875   
Lake_Washington_Level 07/27/1993 0          18.7      
Lake_Washington_Level 07/28/1993 0          18.7      
Lake_Washington_Level 07/29/1993 0          18.7      
Lake_Washington_Level 07/30/1993 0          18.7      
Lake_Washington_Level 07/31/1993 0          18.7      
Lake_Washington_Level 08/01/1993 0          18.6      
Lake_Washington_Level 08/02/1993 0          18.6      
Lake_Washington_Level 08/03/1993 0          18.6      
Lake_Washington_Level 08/04/1993 0          18.6      
Lake_Washington_Level 08/05/1993 0          18.6      
Lake_Washington_Level 08/06/1993 0          18.6      
Lake_Washington_Level 08/07/1993 0          18.55     
Lake_Washington_Level 08/08/1993 0          18.55     
Lake_Washington_Level 08/09/1993 0          18.45     
Lake_Washington_Level 08/10/1993 0          18.45     
Lake_Washington_Level 08/11/1993 0          18.45     
Lake_Washington_Level 08/12/1993 0          18.45     
Lake_Washington_Level 08/13/1993 0          18.43     
Lake_Washington_Level 08/14/1993 0          18.36     
Lake_Washington_Level 08/15/1993 0          18.36     
Lake_Washington_Level 08/16/1993 0          18.36     
Lake_Washington_Level 08/17/1993 0          18.359    
Lake_Washington_Level 08/18/1993 0          18.358    
Lake_Washington_Level 08/19/1993 0          18.357    
Lake_Washington_Level 08/20/1993 0          18.356    
Lake_Washington_Level 08/21/1993 0          18.355    
Lake_Washington_Level 08/22/1993 0          18.354    
Lake_Washington_Level 08/23/1993 0          18.353    
Lake_Washington_Level 08/24/1993 0          18.352    
Lake_Washington_Level 08/25/1993 0          18.351    
Lake_Washington_Level 08/26/1993 0          18.35     
Lake_Washington_Level 08/27/1993 0          18.35     
Lake_Washington_Level 08/28/1993 0          18.26     
Lake_Washington_Level 08/29/1993 0          18.255    
Lake_Washington_Level 08/30/1993 0          18.25     
Lake_Washington_Level 08/31/1993 0          18.25     
Lake_Washington_Level 09/01/1993 0          18.22     
Lake_Washington_Level 09/02/1993 0          18.2      
Lake_Washington_Level 09/03/1993 0          18.15     
Lake_Washington_Level 09/04/1993 0          18.15     
Lake_Washington_Level 09/05/1993 0          18.1      
Lake_Washington_Level 09/06/1993 0          18.05     
Lake_Washington_Level 09/07/1993 0          18.02     
Lake_Washington_Level 09/08/1993 0          18.05     
Lake_Washington_Level 09/09/1993 0          18.05     
Lake_Washington_Level 09/10/1993 0          18.05     
Lake_Washington_Level 09/11/1993 0          18.05     
Lake_Washington_Level 09/12/1993 0          18        
Lake_Washington_Level 09/13/1993 0          17.95     
Lake_Washington_Level 09/14/1993 0          17.9      
Lake_Washington_Level 09/15/1993 0          17.9      
Lake_Washington_Level 09/16/1993 0          17.9      
Lake_Washington_Level 09/17/1993 0          17.875    
Lake_Washington_Level 09/18/1993 0          17.85     
Lake_Washington_Level 09/19/1993 0          17.85     
Lake_Washington_Level 09/20/1993 0          17.85     
Lake_Washington_Level 09/21/1993 0          17.85     
Lake_Washington_Level 09/22/1993 0          17.85     
Lake_Washington_Level 09/23/1993 0          17.82     
Lake_Washington_Level 09/24/1993 0          17.81     
Lake_Washington_Level 09/25/1993 0          17.82     
Lake_Washington_Level 09/26/1993 0          17.8      
Lake_Washington_Level 09/27/1993 0          17.78     
Lake_Washington_Level 09/28/1993 0          17.77     
Lake_Washington_Level 09/29/1993 0          17.76     
Lake_Washington_Level 09/30/1993 0          17.75     
Lake_Washington_Level 10/01/1993 0          17.75     
Lake_Washington_Level 10/02/1993 0          17.75     
Lake_Washington_Level 10/03/1993 0          17.725    
Lake_Washington_Level 10/04/1993 0          17.7      
Lake_Washington_Level 10/05/1993 0          17.7      
Lake_Washington_Level 10/06/1993 0          17.705    
Lake_Washington_Level 10/07/1993 0          17.71     
Lake_Washington_Level 10/08/1993 0          17.69     
Lake_Washington_Level 10/09/1993 0          17.64     
Lake_Washington_Level 10/10/1993 0          17.64     
Lake_Washington_Level 10/11/1993 0          17.62     
Lake_Washington_Level 10/12/1993 0          17.6      
Lake_Washington_Level 10/13/1993 0          17.58     
Lake_Washington_Level 10/14/1993 0          17.56     
Lake_Washington_Level 10/15/1993 0          17.54     
Lake_Washington_Level 10/16/1993 0          17.52     
Lake_Washington_Level 10/17/1993 0          17.495    
Lake_Washington_Level 10/18/1993 0          17.47     
Lake_Washington_Level 10/19/1993 0          17.45     
Lake_Washington_Level 10/20/1993 0          17.43     
Lake_Washington_Level 10/21/1993 0          17.41     
Lake_Washington_Level 10/22/1993 0          17.39     
Lake_Washington_Level 10/23/1993 0          17.37     
Lake_Washington_Level 10/24/1993 0          17.35     
Lake_Washington_Level 10/25/1993 0          17.33     
Lake_Washington_Level 10/26/1993 0          17.31     
Lake_Washington_Level 10/27/1993 0          17.28     
Lake_Washington_Level 10/28/1993 0          17.26     
Lake_Washington_Level 10/29/1993 0          17.24     
Lake_Washington_Level 10/30/1993 0          17.22     
Lake_Washington_Level 10/31/1993 0          17.2      
Lake_Washington_Level 11/01/1993 0          17.18     
Lake_Washington_Level 11/02/1993 0          17.17     
Lake_Washington_Level 11/03/1993 0          17.16     
Lake_Washington_Level 11/04/1993 0          17.14     
Lake_Washington_Level 11/05/1993 0          17.13     
Lake_Washington_Level 11/06/1993 0          17.11     
Lake_Washington_Level 11/07/1993 0          17.095    
Lake_Washington_Level 11/08/1993 0          17.08     
Lake_Washington_Level 11/09/1993 0          17.07     
Lake_Washington_Level 11/10/1993 0          17.05     
Lake_Washington_Level 11/11/1993 0          17.04     
Lake_Washington_Level 11/12/1993 0          17.025    
Lake_Washington_Level 11/13/1993 0          17.01     
Lake_Washington_Level 11/14/1993 0          16.995    
Lake_Washington_Level 11/15/1993 0          16.98     
Lake_Washington_Level 11/16/1993 0          16.97     
Lake_Washington_Level 11/17/1993 0          16.95     
Lake_Washington_Level 11/18/1993 0          16.94     
Lake_Washington_Level 11/19/1993 0          16.92     
Lake_Washington_Level 11/20/1993 0          16.91     
Lake_Washington_Level 11/21/1993 0          16.895    
Lake_Washington_Level 11/22/1993 0          16.88     
Lake_Washington_Level 11/23/1993 0          16.87     
Lake_Washington_Level 11/24/1993 0          16.85     
Lake_Washington_Level 11/25/1993 0          16.84     
Lake_Washington_Level 11/26/1993 0          16.825    
Lake_Washington_Level 11/27/1993 0          16.81     
Lake_Washington_Level 11/28/1993 0          16.795    
Lake_Washington_Level 11/29/1993 0          16.78     
Lake_Washington_Level 11/30/1993 0          16.76     
Lake_Washington_Level 12/01/1993 0          16.75     
Lake_Washington_Level 12/02/1993 0          16.75     
Lake_Washington_Level 12/03/1993 0          16.75     
Lake_Washington_Level 12/04/1993 0          16.73     
Lake_Washington_Level 12/05/1993 0          16.75     
Lake_Washington_Level 12/06/1993 0          16.77     
Lake_Washington_Level 12/07/1993 0          16.77     
Lake_Washington_Level 12/08/1993 0          16.75     
Lake_Washington_Level 12/09/1993 0          16.75     
Lake_Washington_Level 12/10/1993 0          16.75     
Lake_Washington_Level 12/11/1993 0          16.75     
Lake_Washington_Level 12/12/1993 0          16.75     
Lake_Washington_Level 12/13/1993 0          16.75     
Lake_Washington_Level 12/14/1993 0          16.75     
Lake_Washington_Level 12/15/1993 0          16.75     
Lake_Washington_Level 12/16/1993 0          16.75     
Lake_Washington_Level 12/17/1993 0          16.75     
Lake_Washington_Level 12/18/1993 0          16.75     
Lake_Washington_Level 12/19/1993 0          16.75     
Lake_Washington_Level 12/20/1993 0          16.75     
Lake_Washington_Level 12/21/1993 0          16.75     
Lake_Washington_Level 12/22/1993 0          16.75     
Lake_Washington_Level 12/23/1993 0          16.75     
Lake_Washington_Level 12/24/1993 0          16.75     
Lake_Washington_Level 12/25/1993 0          16.75     
Lake_Washington_Level 12/26/1993 0          16.75     
Lake_Washington_Level 12/27/1993 0          16.75     
Lake_Washington_Level 12/28/1993 0          16.75     
Lake_Washington_Level 12/29/1993 0          16.75     
Lake_Washington_Level 12/30/1993 0          16.75     
Lake_Washington_Level 12/31/1993 0          16.75     
Lake_Washington_Level 01/01/1994 0          16.75     
Lake_Washington_Level 01/02/1994 0          16.75     
Lake_Washington_Level 01/03/1994 0          16.75     
Lake_Washington_Level 01/04/1994 0          16.75     
Lake_Washington_Level 01/05/1994 0          16.75     
Lake_Washington_Level 01/06/1994 0          16.75     
Lake_Washington_Level 01/07/1994 0          16.75     
Lake_Washington_Level 01/08/1994 0          16.75     
Lake_Washington_Level 01/09/1994 0          16.75     
Lake_Washington_Level 01/10/1994 0          16.75     
Lake_Washington_Level 01/11/1994 0          16.75     
Lake_Washington_Level 01/12/1994 0          16.75     
Lake_Washington_Level 01/13/1994 0          16.75     
Lake_Washington_Level 01/14/1994 0          16.75     
Lake_Washington_Level 01/15/1994 0          16.75     
Lake_Washington_Level 01/16/1994 0          16.75     
Lake_Washington_Level 01/17/1994 0          16.75     
Lake_Washington_Level 01/18/1994 0          16.75     
Lake_Washington_Level 01/19/1994 0          16.75     
Lake_Washington_Level 01/20/1994 0          16.75     
Lake_Washington_Level 01/21/1994 0          16.75     
Lake_Washington_Level 01/22/1994 0          16.75     
Lake_Washington_Level 01/23/1994 0          16.75     
Lake_Washington_Level 01/24/1994 0          16.75     
Lake_Washington_Level 01/25/1994 0          16.75     
Lake_Washington_Level 01/26/1994 0          16.75     
Lake_Washington_Level 01/27/1994 0          16.75     
Lake_Washington_Level 01/28/1994 0          16.75     
Lake_Washington_Level 01/29/1994 0          16.75     
Lake_Washington_Level 01/30/1994 0          16.75     
Lake_Washington_Level 01/31/1994 0          16.75     
Lake_Washington_Level 02/01/1994 0          16.75     
Lake_Washington_Level 02/02/1994 0          16.75     
Lake_Washington_Level 02/03/1994 0          16.75     
Lake_Washington_Level 02/04/1994 0          16.75     
Lake_Washington_Level 02/05/1994 0          16.75     
Lake_Washington_Level 02/06/1994 0          16.75     
Lake_Washington_Level 02/07/1994 0          16.75     
Lake_Washington_Level 02/08/1994 0          16.75     
Lake_Washington_Level 02/09/1994 0          16.75     
Lake_Washington_Level 02/10/1994 0          16.75     
Lake_Washington_Level 02/11/1994 0          16.75     
Lake_Washington_Level 02/12/1994 0          16.75     
Lake_Washington_Level 02/13/1994 0          16.75     
Lake_Washington_Level 02/14/1994 0          16.75     
Lake_Washington_Level 02/15/1994 0          16.77     
Lake_Washington_Level 02/16/1994 0          16.8      
Lake_Washington_Level 02/17/1994 0          16.83     
Lake_Washington_Level 02/18/1994 0          16.85     
Lake_Washington_Level 02/19/1994 0          16.87     
Lake_Washington_Level 02/20/1994 0          16.895    
Lake_Washington_Level 02/21/1994 0          16.92     
Lake_Washington_Level 02/22/1994 0          16.95     
Lake_Washington_Level 02/23/1994 0          16.97     
Lake_Washington_Level 02/24/1994 0          17        
Lake_Washington_Level 02/25/1994 0          17.025    
Lake_Washington_Level 02/26/1994 0          17.05     
Lake_Washington_Level 02/27/1994 0          17.07     
Lake_Washington_Level 02/28/1994 0          17.09     
Lake_Washington_Level 03/01/1994 0          17.1      
Lake_Washington_Level 03/02/1994 0          17.15     
Lake_Washington_Level 03/03/1994 0          17.17     
Lake_Washington_Level 03/04/1994 0          17.2      
Lake_Washington_Level 03/05/1994 0          17.235    
Lake_Washington_Level 03/06/1994 0          17.27     
Lake_Washington_Level 03/07/1994 0          17.28     
Lake_Washington_Level 03/08/1994 0          17.29     
Lake_Washington_Level 03/09/1994 0          17.32     
Lake_Washington_Level 03/10/1994 0          17.34     
Lake_Washington_Level 03/11/1994 0          17.37     
Lake_Washington_Level 03/12/1994 0          17.39     
Lake_Washington_Level 03/13/1994 0          17.415    
Lake_Washington_Level 03/14/1994 0          17.44     
Lake_Washington_Level 03/15/1994 0          17.46     
Lake_Washington_Level 03/16/1994 0          17.49     
Lake_Washington_Level 03/17/1994 0          17.51     
Lake_Washington_Level 03/18/1994 0          17.54     
Lake_Washington_Level 03/19/1994 0          17.56     
Lake_Washington_Level 03/20/1994 0          17.585    
Lake_Washington_Level 03/21/1994 0          17.61     
Lake_Washington_Level 03/22/1994 0          17.64     
Lake_Washington_Level 03/23/1994 0          17.66     
Lake_Washington_Level 03/24/1994 0          17.69     
Lake_Washington_Level 03/25/1994 0          17.71     
Lake_Washington_Level 03/26/1994 0          17.73     
Lake_Washington_Level 03/27/1994 0          17.755    
Lake_Washington_Level 03/28/1994 0          17.78     
Lake_Washington_Level 03/29/1994 0          17.81     
Lake_Washington_Level 03/30/1994 0          17.83     
Lake_Washington_Level 03/31/1994 0          17.86     
Lake_Washington_Level 04/01/1994 0          17.88     
Lake_Washington_Level 04/02/1994 0          17.91     
Lake_Washington_Level 04/03/1994 0          17.935    
Lake_Washington_Level 04/04/1994 0          17.96     
Lake_Washington_Level 04/05/1994 0          17.98     
Lake_Washington_Level 04/06/1994 0          18.01     
Lake_Washington_Level 04/07/1994 0          18.03     
Lake_Washington_Level 04/08/1994 0          18.06     
Lake_Washington_Level 04/09/1994 0          18.0825   
Lake_Washington_Level 04/10/1994 0          18.105    
Lake_Washington_Level 04/11/1994 0          18.1275   
Lake_Washington_Level 04/12/1994 0          18.15     
Lake_Washington_Level 04/13/1994 0          18.17     
Lake_Washington_Level 04/14/1994 0          18.2      
Lake_Washington_Level 04/15/1994 0          18.23     
Lake_Washington_Level 04/16/1994 0          18.25     
Lake_Washington_Level 04/17/1994 0          18.275    
Lake_Washington_Level 04/18/1994 0          18.3      
Lake_Washington_Level 04/19/1994 0          18.33     
Lake_Washington_Level 04/20/1994 0          18.35     
Lake_Washington_Level 04/21/1994 0          18.38     
Lake_Washington_Level 04/22/1994 0          18.4      
Lake_Washington_Level 04/23/1994 0          18.42     
Lake_Washington_Level 04/24/1994 0          18.445    
Lake_Washington_Level 04/25/1994 0          18.47     
Lake_Washington_Level 04/26/1994 0          18.5      
Lake_Washington_Level 04/27/1994 0          18.52     
Lake_Washington_Level 04/28/1994 0          18.55     
Lake_Washington_Level 04/29/1994 0          18.55     
Lake_Washington_Level 04/30/1994 0          18.6      
Lake_Washington_Level 05/01/1994 0          18.6      
Lake_Washington_Level 05/02/1994 0          18.6      
Lake_Washington_Level 05/03/1994 0          18.6      
Lake_Washington_Level 05/04/1994 0          18.6      
Lake_Washington_Level 05/05/1994 0          18.6      
Lake_Washington_Level 05/06/1994 0          18.6      
Lake_Washington_Level 05/07/1994 0          18.6      
Lake_Washington_Level 05/08/1994 0          18.6      
Lake_Washington_Level 05/09/1994 0          18.6      
Lake_Washington_Level 05/10/1994 0          18.6      
Lake_Washington_Level 05/11/1994 0          18.6      
Lake_Washington_Level 05/12/1994 0          18.6      
Lake_Washington_Level 05/13/1994 0          18.65     
Lake_Washington_Level 05/14/1994 0          18.6      
Lake_Washington_Level 05/15/1994 0          18.6      
Lake_Washington_Level 05/16/1994 0          18.6      
Lake_Washington_Level 05/17/1994 0          18.6      
Lake_Washington_Level 05/18/1994 0          18.6      
Lake_Washington_Level 05/19/1994 0          18.6      
Lake_Washington_Level 05/20/1994 0          18.6      
Lake_Washington_Level 05/21/1994 0          18.6      
Lake_Washington_Level 05/22/1994 0          18.6      
Lake_Washington_Level 05/23/1994 0          18.6      
Lake_Washington_Level 05/24/1994 0          18.6      
Lake_Washington_Level 05/25/1994 0          18.6      
Lake_Washington_Level 05/26/1994 0          18.6      
Lake_Washington_Level 05/27/1994 0          18.6      
Lake_Washington_Level 05/28/1994 0          18.6      
Lake_Washington_Level 05/29/1994 0          18.6      
Lake_Washington_Level 05/30/1994 0          18.6      
Lake_Washington_Level 05/31/1994 0          18.6      
Lake_Washington_Level 06/01/1994 0          18.61     
Lake_Washington_Level 06/02/1994 0          18.6      
Lake_Washington_Level 06/03/1994 0          18.6      
Lake_Washington_Level 06/04/1994 0          18.63     
Lake_Washington_Level 06/05/1994 0          18.63     
Lake_Washington_Level 06/06/1994 0          18.63     
Lake_Washington_Level 06/07/1994 0          18.71     
Lake_Washington_Level 06/08/1994 0          18.61     
Lake_Washington_Level 06/09/1994 0          18.62     
Lake_Washington_Level 06/10/1994 0          18.63     
Lake_Washington_Level 06/11/1994 0          18.62     
Lake_Washington_Level 06/12/1994 0          18.625    
Lake_Washington_Level 06/13/1994 0          18.63     
Lake_Washington_Level 06/14/1994 0          18.67     
Lake_Washington_Level 06/15/1994 0          18.65     
Lake_Washington_Level 06/16/1994 0          18.67     
Lake_Washington_Level 06/17/1994 0          18.65     
Lake_Washington_Level 06/18/1994 0          18.7      
Lake_Washington_Level 06/19/1994 0          18.7      
Lake_Washington_Level 06/20/1994 0          18.7      
Lake_Washington_Level 06/21/1994 0          18.7      
Lake_Washington_Level 06/22/1994 0          18.7      
Lake_Washington_Level 06/23/1994 0          18.68     
Lake_Washington_Level 06/24/1994 0          18.66     
Lake_Washington_Level 06/25/1994 0          18.69     
Lake_Washington_Level 06/26/1994 0          18.67     
Lake_Washington_Level 06/27/1994 0          18.65     
Lake_Washington_Level 06/28/1994 0          18.6      
Lake_Washington_Level 06/29/1994 0          18.67     
Lake_Washington_Level 06/30/1994 0          18.6      
Lake_Washington_Level 07/01/1994 0          18.6      
Lake_Washington_Level 07/02/1994 0          18.61     
Lake_Washington_Level 07/03/1994 0          18.605    
Lake_Washington_Level 07/04/1994 0          18.6      
Lake_Washington_Level 07/05/1994 0          18.6      
Lake_Washington_Level 07/06/1994 0          18.65     
Lake_Washington_Level 07/07/1994 0          18.65     
Lake_Washington_Level 07/08/1994 0          18.63     
Lake_Washington_Level 07/09/1994 0          18.65     
Lake_Washington_Level 07/10/1994 0          18.63     
Lake_Washington_Level 07/11/1994 0          18.61     
Lake_Washington_Level 07/12/1994 0          18.61     
Lake_Washington_Level 07/13/1994 0          18.62     
Lake_Washington_Level 07/14/1994 0          18.6      
Lake_Washington_Level 07/15/1994 0          18.6      
Lake_Washington_Level 07/16/1994 0          18.57     
Lake_Washington_Level 07/17/1994 0          18.555    
Lake_Washington_Level 07/18/1994 0          18.54     
Lake_Washington_Level 07/19/1994 0          18.54     
Lake_Washington_Level 07/20/1994 0          18.52     
Lake_Washington_Level 07/21/1994 0          18.52     
Lake_Washington_Level 07/22/1994 0          18.5      
Lake_Washington_Level 07/23/1994 0          18.48     
Lake_Washington_Level 07/24/1994 0          18.455    
Lake_Washington_Level 07/25/1994 0          18.43     
Lake_Washington_Level 07/26/1994 0          18.38     
Lake_Washington_Level 07/27/1994 0          18.39     
Lake_Washington_Level 07/28/1994 0          18.35     
Lake_Washington_Level 07/29/1994 0          18.35     
Lake_Washington_Level 07/30/1994 0          18.3      
Lake_Washington_Level 07/31/1994 0          18.275    
Lake_Washington_Level 08/01/1994 0          18.25     
Lake_Washington_Level 08/02/1994 0          18.2      
Lake_Washington_Level 08/03/1994 0          18.15     
Lake_Washington_Level 08/04/1994 0          18.15     
Lake_Washington_Level 08/05/1994 0          18.13     
Lake_Washington_Level 08/06/1994 0          18.1      
Lake_Washington_Level 08/07/1994 0          18.075    
Lake_Washington_Level 08/08/1994 0          18.05     
Lake_Washington_Level 08/09/1994 0          18.03     
Lake_Washington_Level 08/10/1994 0          17.98     
Lake_Washington_Level 08/11/1994 0          17.96     
Lake_Washington_Level 08/12/1994 0          17.95     
Lake_Washington_Level 08/13/1994 0          17.94     
Lake_Washington_Level 08/14/1994 0          17.92     
Lake_Washington_Level 08/15/1994 0          17.9      
Lake_Washington_Level 08/16/1994 0          17.85     
Lake_Washington_Level 08/17/1994 0          17.85     
Lake_Washington_Level 08/18/1994 0          17.83     
Lake_Washington_Level 08/19/1994 0          17.82     
Lake_Washington_Level 08/20/1994 0          17.76     
Lake_Washington_Level 08/21/1994 0          17.755    
Lake_Washington_Level 08/22/1994 0          17.75     
Lake_Washington_Level 08/23/1994 0          17.68     
Lake_Washington_Level 08/24/1994 0          17.645    
Lake_Washington_Level 08/25/1994 0          17.61     
Lake_Washington_Level 08/26/1994 0          17.6      
Lake_Washington_Level 08/27/1994 0          17.49     
Lake_Washington_Level 08/28/1994 0          17.455    
Lake_Washington_Level 08/29/1994 0          17.42     
Lake_Washington_Level 08/30/1994 0          17.35     
Lake_Washington_Level 08/31/1994 0          17.39     
Lake_Washington_Level 09/01/1994 0          17.355    
Lake_Washington_Level 09/02/1994 0          17.32     
Lake_Washington_Level 09/03/1994 0          17.35     
Lake_Washington_Level 09/04/1994 0          17.35     
Lake_Washington_Level 09/05/1994 0          17.35     
Lake_Washington_Level 09/06/1994 0          17.32     
Lake_Washington_Level 09/07/1994 0          17.33     
Lake_Washington_Level 09/08/1994 0          17.31     
Lake_Washington_Level 09/09/1994 0          17.33     
Lake_Washington_Level 09/10/1994 0          17.35     
Lake_Washington_Level 09/11/1994 0          17.32     
Lake_Washington_Level 09/12/1994 0          17.29     
Lake_Washington_Level 09/13/1994 0          17.3      
Lake_Washington_Level 09/14/1994 0          17.28     
Lake_Washington_Level 09/15/1994 0          17.28     
Lake_Washington_Level 09/16/1994 0          17.26     
Lake_Washington_Level 09/17/1994 0          17.25     
Lake_Washington_Level 09/18/1994 0          17.25     
Lake_Washington_Level 09/19/1994 0          17.25     
Lake_Washington_Level 09/20/1994 0          17.25     
Lake_Washington_Level 09/21/1994 0          17.25     
Lake_Washington_Level 09/22/1994 0          17.22     
Lake_Washington_Level 09/23/1994 0          17.19     
Lake_Washington_Level 09/24/1994 0          17.19     
Lake_Washington_Level 09/25/1994 0          17.17     
Lake_Washington_Level 09/26/1994 0          17.15     
Lake_Washington_Level 09/27/1994 0          17.17     
Lake_Washington_Level 09/28/1994 0          17.15     
Lake_Washington_Level 09/29/1994 0          17.11     
Lake_Washington_Level 09/30/1994 0          17.12     
Lake_Washington_Level 10/01/1994 0          17.1      
Lake_Washington_Level 10/02/1994 0          17.085    
Lake_Washington_Level 10/03/1994 0          17.07     
Lake_Washington_Level 10/04/1994 0          17.03     
Lake_Washington_Level 10/05/1994 0          17.05     
Lake_Washington_Level 10/06/1994 0          17.03     
Lake_Washington_Level 10/07/1994 0          17.02     
Lake_Washington_Level 10/08/1994 0          16.98     
Lake_Washington_Level 10/09/1994 0          16.98     
Lake_Washington_Level 10/10/1994 0          16.98     
Lake_Washington_Level 10/11/1994 0          16.98     
Lake_Washington_Level 10/12/1994 0          16.98     
Lake_Washington_Level 10/13/1994 0          16.98     
Lake_Washington_Level 10/14/1994 0          16.98     
Lake_Washington_Level 10/15/1994 0          16.98     
Lake_Washington_Level 10/16/1994 0          16.98     
Lake_Washington_Level 10/17/1994 0          16.985    
Lake_Washington_Level 10/18/1994 0          16.99     
Lake_Washington_Level 10/19/1994 0          16.98     
Lake_Washington_Level 10/20/1994 0          17        
Lake_Washington_Level 10/21/1994 0          16.99     
Lake_Washington_Level 10/22/1994 0          16.99     
Lake_Washington_Level 10/23/1994 0          16.99     
Lake_Washington_Level 10/24/1994 0          16.99     
Lake_Washington_Level 10/25/1994 0          16.99     
Lake_Washington_Level 10/26/1994 0          16.99     
Lake_Washington_Level 10/27/1994 0          17.13     
Lake_Washington_Level 10/28/1994 0          17.19     
Lake_Washington_Level 10/29/1994 0          17.18     
Lake_Washington_Level 10/30/1994 0          17.17     
Lake_Washington_Level 10/31/1994 0          17.16     
Lake_Washington_Level 11/01/1994 0          17.15     
Lake_Washington_Level 11/02/1994 0          17.17     
Lake_Washington_Level 11/03/1994 0          17.15667  
Lake_Washington_Level 11/04/1994 0          17.14333  
Lake_Washington_Level 11/05/1994 0          17.13     
Lake_Washington_Level 11/06/1994 0          17.1      
Lake_Washington_Level 11/07/1994 0          16.75     
Lake_Washington_Level 11/08/1994 0          17.08     
Lake_Washington_Level 11/09/1994 0          17.08     
Lake_Washington_Level 11/10/1994 0          17.05     
Lake_Washington_Level 11/11/1994 0          17.04     
Lake_Washington_Level 11/12/1994 0          17.025    
Lake_Washington_Level 11/13/1994 0          17.01     
Lake_Washington_Level 11/14/1994 0          17        
Lake_Washington_Level 11/15/1994 0          16.98     
Lake_Washington_Level 11/16/1994 0          16.965    
Lake_Washington_Level 11/17/1994 0          16.95     
Lake_Washington_Level 11/18/1994 0          16.93667  
Lake_Washington_Level 11/19/1994 0          16.92333  
Lake_Washington_Level 11/20/1994 0          16.91     
Lake_Washington_Level 11/21/1994 0          16.89667  
Lake_Washington_Level 11/22/1994 0          16.88333  
Lake_Washington_Level 11/23/1994 0          16.87     
Lake_Washington_Level 11/24/1994 0          16.85     
Lake_Washington_Level 11/25/1994 0          16.84     
Lake_Washington_Level 11/26/1994 0          16.825    
Lake_Washington_Level 11/27/1994 0          16.81     
Lake_Washington_Level 11/28/1994 0          16.69     
Lake_Washington_Level 11/29/1994 0          16.78     
Lake_Washington_Level 11/30/1994 0          16.765    
Lake_Washington_Level 12/01/1994 0          16.75     
Lake_Washington_Level 12/02/1994 0          16.95     
Lake_Washington_Level 12/03/1994 0          16.9      
Lake_Washington_Level 12/04/1994 0          16.85     
Lake_Washington_Level 12/05/1994 0          16.8      
Lake_Washington_Level 12/06/1994 0          16.75     
Lake_Washington_Level 12/07/1994 0          16.75     
Lake_Washington_Level 12/08/1994 0          16.75     
Lake_Washington_Level 12/09/1994 0          16.75     
Lake_Washington_Level 12/10/1994 0          16.75     
Lake_Washington_Level 12/11/1994 0          16.735    
Lake_Washington_Level 12/12/1994 0          16.72     
Lake_Washington_Level 12/13/1994 0          16.72375  
Lake_Washington_Level 12/14/1994 0          16.7275   
Lake_Washington_Level 12/15/1994 0          16.73125  
Lake_Washington_Level 12/16/1994 0          16.735    
Lake_Washington_Level 12/17/1994 0          16.73875  
Lake_Washington_Level 12/18/1994 0          16.7425   
Lake_Washington_Level 12/19/1994 0          16.74625  
Lake_Washington_Level 12/20/1994 0          16.75     
Lake_Washington_Level 12/21/1994 0          16.75     
Lake_Washington_Level 12/22/1994 0          16.75     
Lake_Washington_Level 12/23/1994 0          16.75     
Lake_Washington_Level 12/24/1994 0          16.75     
Lake_Washington_Level 12/25/1994 0          16.75     
Lake_Washington_Level 12/26/1994 0          16.75     
Lake_Washington_Level 12/27/1994 0          16.75     
Lake_Washington_Level 12/28/1994 0          16.75     
Lake_Washington_Level 12/29/1994 0          16.75     
Lake_Washington_Level 12/30/1994 0          16.75     
Lake_Washington_Level 12/31/1994 0          16.75     
Lake_Washington_Level 01/01/1995 0          16.75     
Lake_Washington_Level 01/02/1995 0          16.75     
Lake_Washington_Level 01/03/1995 0          16.75     
Lake_Washington_Level 01/04/1995 0          16.75     
Lake_Washington_Level 01/05/1995 0          16.75     
Lake_Washington_Level 01/06/1995 0          16.75     
Lake_Washington_Level 01/07/1995 0          16.75     
Lake_Washington_Level 01/08/1995 0          16.75     
Lake_Washington_Level 01/09/1995 0          16.75     
Lake_Washington_Level 01/10/1995 0          16.75     
Lake_Washington_Level 01/11/1995 0          16.77     
Lake_Washington_Level 01/12/1995 0          16.75     
Lake_Washington_Level 01/13/1995 0          16.75     
Lake_Washington_Level 01/14/1995 0          16.75     
Lake_Washington_Level 01/15/1995 0          16.75     
Lake_Washington_Level 01/16/1995 0          16.75     
Lake_Washington_Level 01/17/1995 0          16.75     
Lake_Washington_Level 01/18/1995 0          16.75     
Lake_Washington_Level 01/19/1995 0          16.75     
Lake_Washington_Level 01/20/1995 0          16.75     
Lake_Washington_Level 01/21/1995 0          16.75     
Lake_Washington_Level 01/22/1995 0          16.75     
Lake_Washington_Level 01/23/1995 0          16.75     
Lake_Washington_Level 01/24/1995 0          16.8      
Lake_Washington_Level 01/25/1995 0          16.85     
Lake_Washington_Level 01/26/1995 0          16.85     
Lake_Washington_Level 01/27/1995 0          16.85     
Lake_Washington_Level 01/28/1995 0          16.85     
Lake_Washington_Level 01/29/1995 0          16.85     
Lake_Washington_Level 01/30/1995 0          16.85     
Lake_Washington_Level 01/31/1995 0          16.85     
Lake_Washington_Level 02/01/1995 0          16.85     
Lake_Washington_Level 02/02/1995 0          16.85     
Lake_Washington_Level 02/03/1995 0          16.85     
Lake_Washington_Level 02/04/1995 0          16.85     
Lake_Washington_Level 02/05/1995 0          16.85     
Lake_Washington_Level 02/06/1995 0          16.85     
Lake_Washington_Level 02/07/1995 0          16.85     
Lake_Washington_Level 02/08/1995 0          16.85     
Lake_Washington_Level 02/09/1995 0          16.85     
Lake_Washington_Level 02/10/1995 0          16.85     
Lake_Washington_Level 02/11/1995 0          16.85     
Lake_Washington_Level 02/12/1995 0          16.85     
Lake_Washington_Level 02/13/1995 0          16.85     
Lake_Washington_Level 02/14/1995 0          16.874    
Lake_Washington_Level 02/15/1995 0          16.898    
Lake_Washington_Level 02/16/1995 0          16.922    
Lake_Washington_Level 02/17/1995 0          16.946    
Lake_Washington_Level 02/18/1995 0          16.97     
Lake_Washington_Level 02/19/1995 0          16.994    
Lake_Washington_Level 02/20/1995 0          17.018    
Lake_Washington_Level 02/21/1995 0          16.97     
Lake_Washington_Level 02/22/1995 0          17        
Lake_Washington_Level 02/23/1995 0          17        
Lake_Washington_Level 02/24/1995 0          17.03333  
Lake_Washington_Level 02/25/1995 0          17.06667  
Lake_Washington_Level 02/26/1995 0          17.1      
Lake_Washington_Level 02/27/1995 0          17.13333  
Lake_Washington_Level 02/28/1995 0          17.16667  
Lake_Washington_Level 03/01/1995 0          17.2      
Lake_Washington_Level 03/02/1995 0          17.18     
Lake_Washington_Level 03/03/1995 0          17.224    
Lake_Washington_Level 03/04/1995 0          17.268    
Lake_Washington_Level 03/05/1995 0          17.312    
Lake_Washington_Level 03/06/1995 0          17.356    
Lake_Washington_Level 03/07/1995 0          17.4      
Lake_Washington_Level 03/08/1995 0          17.45     
Lake_Washington_Level 03/09/1995 0          17.47     
Lake_Washington_Level 03/10/1995 0          17.49     
Lake_Washington_Level 03/11/1995 0          17.51     
Lake_Washington_Level 03/12/1995 0          17.55     
Lake_Washington_Level 03/13/1995 0          17.59     
Lake_Washington_Level 03/14/1995 0          17.69     
Lake_Washington_Level 03/15/1995 0          17.69     
Lake_Washington_Level 03/16/1995 0          17.71     
Lake_Washington_Level 03/17/1995 0          17.73     
Lake_Washington_Level 03/18/1995 0          17.75     
Lake_Washington_Level 03/19/1995 0          17.77     
Lake_Washington_Level 03/20/1995 0          17.79     
Lake_Washington_Level 03/21/1995 0          17.825    
Lake_Washington_Level 03/22/1995 0          17.86     
Lake_Washington_Level 03/23/1995 0          17.93     
Lake_Washington_Level 03/24/1995 0          18        
Lake_Washington_Level 03/25/1995 0          18.07     
Lake_Washington_Level 03/26/1995 0          18.14     
Lake_Washington_Level 03/27/1995 0          18.21     
Lake_Washington_Level 03/28/1995 0          18.28     
Lake_Washington_Level 03/29/1995 0          18.35     
Lake_Washington_Level 03/30/1995 0          18.42     
Lake_Washington_Level 03/31/1995 0          18.49     
Lake_Washington_Level 04/01/1995 0          18.56     
Lake_Washington_Level 04/02/1995 0          18.63     
Lake_Washington_Level 04/03/1995 0          18.7      
Lake_Washington_Level 04/04/1995 0          18.77     
Lake_Washington_Level 04/05/1995 0          18.21     
Lake_Washington_Level 04/06/1995 0          18.21     
Lake_Washington_Level 04/07/1995 0          18.23     
Lake_Washington_Level 04/08/1995 0          18.29     
Lake_Washington_Level 04/09/1995 0          18.28     
Lake_Washington_Level 04/10/1995 0          18.27     
Lake_Washington_Level 04/11/1995 0          18.26     
Lake_Washington_Level 04/12/1995 0          18.3      
Lake_Washington_Level 04/13/1995 0          18.26     
Lake_Washington_Level 04/14/1995 0          18.33     
Lake_Washington_Level 04/15/1995 0          18.33     
Lake_Washington_Level 04/16/1995 0          18.35     
Lake_Washington_Level 04/17/1995 0          18.37     
Lake_Washington_Level 04/18/1995 0          18.37     
Lake_Washington_Level 04/19/1995 0          18.39     
Lake_Washington_Level 04/20/1995 0          18.41     
Lake_Washington_Level 04/21/1995 0          18.41     
Lake_Washington_Level 04/22/1995 0          18.45     
Lake_Washington_Level 04/23/1995 0          18.46     
Lake_Washington_Level 04/24/1995 0          18.47     
Lake_Washington_Level 04/25/1995 0          18.48     
Lake_Washington_Level 04/26/1995 0          18.49     
Lake_Washington_Level 04/27/1995 0          18.5      
Lake_Washington_Level 04/28/1995 0          18.55     
Lake_Washington_Level 04/29/1995 0          18.57333  
Lake_Washington_Level 04/30/1995 0          18.59667  
Lake_Washington_Level 05/01/1995 0          18.62     
Lake_Washington_Level 05/02/1995 0          18.64333  
Lake_Washington_Level 05/03/1995 0          18.66667  
Lake_Washington_Level 05/04/1995 0          18.69     
Lake_Washington_Level 05/05/1995 0          18.65     
Lake_Washington_Level 05/06/1995 0          18.65     
Lake_Washington_Level 05/07/1995 0          18.65     
Lake_Washington_Level 05/08/1995 0          18.65     
Lake_Washington_Level 05/09/1995 0          18.65     
Lake_Washington_Level 05/10/1995 0          18.65     
Lake_Washington_Level 05/11/1995 0          18.65     
Lake_Washington_Level 05/12/1995 0          18.65     
Lake_Washington_Level 05/13/1995 0          18.65     
Lake_Washington_Level 05/14/1995 0          18.65     
Lake_Washington_Level 05/15/1995 0          18.65     
Lake_Washington_Level 05/16/1995 0          18.65     
Lake_Washington_Level 05/17/1995 0          18.65     
Lake_Washington_Level 05/18/1995 0          18.65     
Lake_Washington_Level 05/19/1995 0          18.65     
Lake_Washington_Level 05/20/1995 0          18.65     
Lake_Washington_Level 05/21/1995 0          18.65     
Lake_Washington_Level 05/22/1995 0          18.65     
Lake_Washington_Level 05/23/1995 0          18.65     
Lake_Washington_Level 05/24/1995 0          18.65     
Lake_Washington_Level 05/25/1995 0          18.65     
Lake_Washington_Level 05/26/1995 0          18.64     
Lake_Washington_Level 05/27/1995 0          18.63     
Lake_Washington_Level 05/28/1995 0          18.62     
Lake_Washington_Level 05/29/1995 0          18.61     
Lake_Washington_Level 05/30/1995 0          18.6      
Lake_Washington_Level 05/31/1995 0          18.6      
Lake_Washington_Level 06/01/1995 0          18.6      
Lake_Washington_Level 06/02/1995 0          18.60833  
Lake_Washington_Level 06/03/1995 0          18.61667  
Lake_Washington_Level 06/04/1995 0          18.625    
Lake_Washington_Level 06/05/1995 0          18.63333  
Lake_Washington_Level 06/06/1995 0          18.64167  
Lake_Washington_Level 06/07/1995 0          18.65     
Lake_Washington_Level 06/08/1995 0          18.63     
Lake_Washington_Level 06/09/1995 0          18.65     
Lake_Washington_Level 06/10/1995 0          18.61     
Lake_Washington_Level 06/11/1995 0          18.63333  
Lake_Washington_Level 06/12/1995 0          18.65667  
Lake_Washington_Level 06/13/1995 0          18.68     
Lake_Washington_Level 06/14/1995 0          18.6725   
Lake_Washington_Level 06/15/1995 0          18.665    
Lake_Washington_Level 06/16/1995 0          18.6575   
Lake_Washington_Level 06/17/1995 0          18.65     
Lake_Washington_Level 06/18/1995 0          18.65     
Lake_Washington_Level 06/19/1995 0          18.65     
Lake_Washington_Level 06/20/1995 0          18.65     
Lake_Washington_Level 06/21/1995 0          18.6      
Lake_Washington_Level 06/22/1995 0          18.6      
Lake_Washington_Level 06/23/1995 0          18.6      
Lake_Washington_Level 06/24/1995 0          18.55     
Lake_Washington_Level 06/25/1995 0          18.55     
Lake_Washington_Level 06/26/1995 0          18.55     
Lake_Washington_Level 06/27/1995 0          18.55     
Lake_Washington_Level 06/28/1995 0          18.55     
Lake_Washington_Level 06/29/1995 0          18.53125  
Lake_Washington_Level 06/30/1995 0          18.5125   
Lake_Washington_Level 07/01/1995 0          18.49375  
Lake_Washington_Level 07/02/1995 0          18.475    
Lake_Washington_Level 07/03/1995 0          18.45625  
Lake_Washington_Level 07/04/1995 0          18.4375   
Lake_Washington_Level 07/05/1995 0          18.41875  
Lake_Washington_Level 07/06/1995 0          18.4      
Lake_Washington_Level 07/07/1995 0          18.40167  
Lake_Washington_Level 07/08/1995 0          18.40333  
Lake_Washington_Level 07/09/1995 0          18.405    
Lake_Washington_Level 07/10/1995 0          18.40667  
Lake_Washington_Level 07/11/1995 0          18.40833  
Lake_Washington_Level 07/12/1995 0          18.41     
Lake_Washington_Level 07/13/1995 0          18.41     
Lake_Washington_Level 07/14/1995 0          18.41     
Lake_Washington_Level 07/15/1995 0          18.38     
Lake_Washington_Level 07/16/1995 0          18.365    
Lake_Washington_Level 07/17/1995 0          18.35     
Lake_Washington_Level 07/18/1995 0          18.34     
Lake_Washington_Level 07/19/1995 0          18.34     
Lake_Washington_Level 07/20/1995 0          18.315    
Lake_Washington_Level 07/21/1995 0          18.29     
Lake_Washington_Level 07/22/1995 0          18.27     
Lake_Washington_Level 07/23/1995 0          18.25     
Lake_Washington_Level 07/24/1995 0          18.23     
Lake_Washington_Level 07/25/1995 0          18.21     
Lake_Washington_Level 07/26/1995 0          18.255    
Lake_Washington_Level 07/27/1995 0          18.3      
Lake_Washington_Level 07/28/1995 0          18.25     
Lake_Washington_Level 07/29/1995 0          18.2275   
Lake_Washington_Level 07/30/1995 0          18.205    
Lake_Washington_Level 07/31/1995 0          18.1825   
Lake_Washington_Level 08/01/1995 0          18.16     
Lake_Washington_Level 08/02/1995 0          18.13     
Lake_Washington_Level 08/03/1995 0          18.1      
Lake_Washington_Level 08/04/1995 0          18.08     
Lake_Washington_Level 08/05/1995 0          18.08     
Lake_Washington_Level 08/06/1995 0          18.08     
Lake_Washington_Level 08/07/1995 0          18.08     
Lake_Washington_Level 08/08/1995 0          18.08     
Lake_Washington_Level 08/09/1995 0          18.07     
Lake_Washington_Level 08/10/1995 0          18.06     
Lake_Washington_Level 08/11/1995 0          18.06     
Lake_Washington_Level 08/12/1995 0          18.06     
Lake_Washington_Level 08/13/1995 0          18.06     
Lake_Washington_Level 08/14/1995 0          18.06     
Lake_Washington_Level 08/15/1995 0          18.06     
Lake_Washington_Level 08/16/1995 0          18.1      
Lake_Washington_Level 08/17/1995 0          18.14     
Lake_Washington_Level 08/18/1995 0          18.18     
Lake_Washington_Level 08/19/1995 0          18.22     
Lake_Washington_Level 08/20/1995 0          18.205    
Lake_Washington_Level 08/21/1995 0          18.19     
Lake_Washington_Level 08/22/1995 0          18.185    
Lake_Washington_Level 08/23/1995 0          18.18     
Lake_Washington_Level 08/24/1995 0          18.165    
Lake_Washington_Level 08/25/1995 0          18.15     
Lake_Washington_Level 08/26/1995 0          18.135    
Lake_Washington_Level 08/27/1995 0          18.12     
Lake_Washington_Level 08/28/1995 0          18.105    
Lake_Washington_Level 08/29/1995 0          18.09     
Lake_Washington_Level 08/30/1995 0          18.08     
Lake_Washington_Level 08/31/1995 0          18.06     
Lake_Washington_Level 09/01/1995 0          18.02     
Lake_Washington_Level 09/02/1995 0          18.01     
Lake_Washington_Level 09/03/1995 0          18        
Lake_Washington_Level 09/04/1995 0          17.99     
Lake_Washington_Level 09/05/1995 0          17.98     
Lake_Washington_Level 09/06/1995 0          17.97     
Lake_Washington_Level 09/07/1995 0          17.96     
Lake_Washington_Level 09/08/1995 0          17.95     
Lake_Washington_Level 09/09/1995 0          17.93     
Lake_Washington_Level 09/10/1995 0          17.91667  
Lake_Washington_Level 09/11/1995 0          17.90333  
Lake_Washington_Level 09/12/1995 0          17.89     
Lake_Washington_Level 09/13/1995 0          17.88     
Lake_Washington_Level 09/14/1995 0          17.86     
Lake_Washington_Level 09/15/1995 0          17.85     
Lake_Washington_Level 09/16/1995 0          17.84     
Lake_Washington_Level 09/17/1995 0          17.82     
Lake_Washington_Level 09/18/1995 0          17.8      
Lake_Washington_Level 09/19/1995 0          17.8      
Lake_Washington_Level 09/20/1995 0          17.8      
Lake_Washington_Level 09/21/1995 0          17.8      
Lake_Washington_Level 09/22/1995 0          17.75     
Lake_Washington_Level 09/23/1995 0          17.75     
Lake_Washington_Level 09/24/1995 0          17.735    
Lake_Washington_Level 09/25/1995 0          17.72     
Lake_Washington_Level 09/26/1995 0          17.72     
Lake_Washington_Level 09/27/1995 0          17.73     
Lake_Washington_Level 09/28/1995 0          17.75     
Lake_Washington_Level 09/29/1995 0          17.72     
Lake_Washington_Level 09/30/1995 0          17.74     
Lake_Washington_Level 10/01/1995 0          17.76     
Lake_Washington_Level 10/02/1995 0          17.78     
Lake_Washington_Level 10/03/1995 0          17.8      
Lake_Washington_Level 10/04/1995 0          17.89     
Lake_Washington_Level 10/05/1995 0          17.68     
Lake_Washington_Level 10/06/1995 0          17.65     
Lake_Washington_Level 10/07/1995 0          17.65     
Lake_Washington_Level 10/08/1995 0          17.64     
Lake_Washington_Level 10/09/1995 0          17.63     
Lake_Washington_Level 10/10/1995 0          17.69     
Lake_Washington_Level 10/11/1995 0          17.79     
Lake_Washington_Level 10/12/1995 0          17.65     
Lake_Washington_Level 10/13/1995 0          17.55     
Lake_Washington_Level 10/14/1995 0          17.45     
Lake_Washington_Level 10/15/1995 0          17.42     
Lake_Washington_Level 10/16/1995 0          17.39     
Lake_Washington_Level 10/17/1995 0          17.32     
Lake_Washington_Level 10/18/1995 0          17.29     
Lake_Washington_Level 10/19/1995 0          17.33     
Lake_Washington_Level 10/20/1995 0          17.35     
Lake_Washington_Level 10/21/1995 0          17.43     
Lake_Washington_Level 10/22/1995 0          17.415    
Lake_Washington_Level 10/23/1995 0          17.4      
Lake_Washington_Level 10/24/1995 0          17.37     
Lake_Washington_Level 10/25/1995 0          17.33     
Lake_Washington_Level 10/26/1995 0          17.28     
Lake_Washington_Level 10/27/1995 0          17.27     
Lake_Washington_Level 10/28/1995 0          17.27     
Lake_Washington_Level 10/29/1995 0          17.28     
Lake_Washington_Level 10/30/1995 0          17.29     
Lake_Washington_Level 10/31/1995 0          17.23     
Lake_Washington_Level 11/01/1995 0          17.21     
Lake_Washington_Level 11/02/1995 0          17.195    
Lake_Washington_Level 11/03/1995 0          17.18     
Lake_Washington_Level 11/04/1995 0          17.17     
Lake_Washington_Level 11/05/1995 0          17.145    
Lake_Washington_Level 11/06/1995 0          17.12     
Lake_Washington_Level 11/07/1995 0          17.1      
Lake_Washington_Level 11/08/1995 0          17.08     
Lake_Washington_Level 11/09/1995 0          17.07     
Lake_Washington_Level 11/10/1995 0          17.056    
Lake_Washington_Level 11/11/1995 0          17.042    
Lake_Washington_Level 11/12/1995 0          17.028    
Lake_Washington_Level 11/13/1995 0          17.014    
Lake_Washington_Level 11/14/1995 0          17        
Lake_Washington_Level 11/15/1995 0          16.98     
Lake_Washington_Level 11/16/1995 0          16.96     
Lake_Washington_Level 11/17/1995 0          17.04     
Lake_Washington_Level 11/18/1995 0          16.9      
Lake_Washington_Level 11/19/1995 0          16.905    
Lake_Washington_Level 11/20/1995 0          16.91     
Lake_Washington_Level 11/21/1995 0          16.89     
Lake_Washington_Level 11/22/1995 0          16.885    
Lake_Washington_Level 11/23/1995 0          16.88     
Lake_Washington_Level 11/24/1995 0          16.86     
Lake_Washington_Level 11/25/1995 0          16.84     
Lake_Washington_Level 11/26/1995 0          16.82     
Lake_Washington_Level 11/27/1995 0          16.8      
Lake_Washington_Level 11/28/1995 0          16.79     
Lake_Washington_Level 11/29/1995 0          16.775    
Lake_Washington_Level 11/30/1995 0          16.76     
Lake_Washington_Level 12/01/1995 0          16.75     
Lake_Washington_Level 12/02/1995 0          16.75     
Lake_Washington_Level 12/03/1995 0          16.75     
Lake_Washington_Level 12/04/1995 0          16.75     
Lake_Washington_Level 12/05/1995 0          16.75     
Lake_Washington_Level 12/06/1995 0          16.75     
Lake_Washington_Level 12/07/1995 0          16.75     
Lake_Washington_Level 12/08/1995 0          16.75     
Lake_Washington_Level 12/09/1995 0          16.75     
Lake_Washington_Level 12/10/1995 0          16.7      
Lake_Washington_Level 12/11/1995 0          16.65     
Lake_Washington_Level 12/12/1995 0          16.75     
Lake_Washington_Level 12/13/1995 0          16.75     
Lake_Washington_Level 12/14/1995 0          16.75     
Lake_Washington_Level 12/15/1995 0          16.75     
Lake_Washington_Level 12/16/1995 0          16.75     
Lake_Washington_Level 12/17/1995 0          16.75     
Lake_Washington_Level 12/18/1995 0          16.75     
Lake_Washington_Level 12/19/1995 0          16.75     
Lake_Washington_Level 12/20/1995 0          16.75     
Lake_Washington_Level 12/21/1995 0          16.75     
Lake_Washington_Level 12/22/1995 0          16.75     
Lake_Washington_Level 12/23/1995 0          16.75     
Lake_Washington_Level 12/24/1995 0          16.75     
Lake_Washington_Level 12/25/1995 0          16.75     
Lake_Washington_Level 12/26/1995 0          16.75     
Lake_Washington_Level 12/27/1995 0          16.75     
Lake_Washington_Level 12/28/1995 0          16.75     
Lake_Washington_Level 12/29/1995 0          16.75     
Lake_Washington_Level 12/30/1995 0          16.75     
Lake_Washington_Level 12/31/1995 0          16.75     
Lake_Washington_Level 01/01/1996 0          16.75     
Lake_Washington_Level 01/02/1996 0          16.75     
Lake_Washington_Level 01/03/1996 0          16.75     
Lake_Washington_Level 01/04/1996 0          16.75     
Lake_Washington_Level 01/05/1996 0          16.75     
Lake_Washington_Level 01/06/1996 0          16.75     
Lake_Washington_Level 01/07/1996 0          16.75     
Lake_Washington_Level 01/08/1996 0          16.75     
Lake_Washington_Level 01/09/1996 0          16.75     
Lake_Washington_Level 01/10/1996 0          16.75     
Lake_Washington_Level 01/11/1996 0          16.75     
Lake_Washington_Level 01/12/1996 0          16.75     
Lake_Washington_Level 01/13/1996 0          16.75     
Lake_Washington_Level 01/14/1996 0          16.75     
Lake_Washington_Level 01/15/1996 0          16.75     
Lake_Washington_Level 01/16/1996 0          16.75     
Lake_Washington_Level 01/17/1996 0          16.75     
Lake_Washington_Level 01/18/1996 0          16.75     
Lake_Washington_Level 01/19/1996 0          16.75     
Lake_Washington_Level 01/20/1996 0          16.75     
Lake_Washington_Level 01/21/1996 0          16.75     
Lake_Washington_Level 01/22/1996 0          16.75     
Lake_Washington_Level 01/23/1996 0          16.75     
Lake_Washington_Level 01/24/1996 0          16.75     
Lake_Washington_Level 01/25/1996 0          16.75     
Lake_Washington_Level 01/26/1996 0          16.75     
Lake_Washington_Level 01/27/1996 0          16.75     
Lake_Washington_Level 01/28/1996 0          16.75     
Lake_Washington_Level 01/29/1996 0          16.75     
Lake_Washington_Level 01/30/1996 0          16.75     
Lake_Washington_Level 01/31/1996 0          16.75     
Lake_Washington_Level 02/01/1996 0          16.75     
Lake_Washington_Level 02/02/1996 0          16.75     
Lake_Washington_Level 02/03/1996 0          16.9      
Lake_Washington_Level 02/04/1996 0          16.93     
Lake_Washington_Level 02/05/1996 0          16.96     
Lake_Washington_Level 02/06/1996 0          16.97     
Lake_Washington_Level 02/07/1996 0          17.01     
Lake_Washington_Level 02/08/1996 0          17.05     
Lake_Washington_Level 02/09/1996 0          17.31     
Lake_Washington_Level 02/10/1996 0          17.29     
Lake_Washington_Level 02/11/1996 0          17.105    
Lake_Washington_Level 02/12/1996 0          16.92     
Lake_Washington_Level 02/13/1996 0          16.95     
Lake_Washington_Level 02/14/1996 0          16.95     
Lake_Washington_Level 02/15/1996 0          17.03     
Lake_Washington_Level 02/16/1996 0          17.02     
Lake_Washington_Level 02/17/1996 0          17        
Lake_Washington_Level 02/18/1996 0          17.05     
Lake_Washington_Level 02/19/1996 0          17.1      
Lake_Washington_Level 02/20/1996 0          17.08     
Lake_Washington_Level 02/21/1996 0          17.08     
Lake_Washington_Level 02/22/1996 0          17.18     
Lake_Washington_Level 02/23/1996 0          17.18     
Lake_Washington_Level 02/24/1996 0          17.17     
Lake_Washington_Level 02/25/1996 0          17.23     
Lake_Washington_Level 02/26/1996 0          17.29     
Lake_Washington_Level 02/27/1996 0          17.31     
Lake_Washington_Level 02/28/1996 0          17.33     
Lake_Washington_Level 02/29/1996 0          17.39     
Lake_Washington_Level 03/01/1996 0          17.37     
Lake_Washington_Level 03/02/1996 0          17.31     
Lake_Washington_Level 03/03/1996 0          17.36     
Lake_Washington_Level 03/04/1996 0          17.41     
Lake_Washington_Level 03/05/1996 0          17.47     
Lake_Washington_Level 03/06/1996 0          17.49     
Lake_Washington_Level 03/07/1996 0          17.53     
Lake_Washington_Level 03/08/1996 0          17.52     
Lake_Washington_Level 03/09/1996 0          17.55     
Lake_Washington_Level 03/10/1996 0          17.58     
Lake_Washington_Level 03/11/1996 0          17.61     
Lake_Washington_Level 03/12/1996 0          17.65     
Lake_Washington_Level 03/13/1996 0          17.65     
Lake_Washington_Level 03/14/1996 0          17.69     
Lake_Washington_Level 03/15/1996 0          17.71     
Lake_Washington_Level 03/16/1996 0          17.71     
Lake_Washington_Level 03/17/1996 0          17.735    
Lake_Washington_Level 03/18/1996 0          17.76     
Lake_Washington_Level 03/19/1996 0          17.8      
Lake_Washington_Level 03/20/1996 0          17.81     
Lake_Washington_Level 03/21/1996 0          17.8      
Lake_Washington_Level 03/22/1996 0          17.85     
Lake_Washington_Level 03/23/1996 0          17.9      
Lake_Washington_Level 03/24/1996 0          17.95     
Lake_Washington_Level 03/25/1996 0          18        
Lake_Washington_Level 03/26/1996 0          17.97     
Lake_Washington_Level 03/27/1996 0          18        
Lake_Washington_Level 03/28/1996 0          18.01     
Lake_Washington_Level 03/29/1996 0          18        
Lake_Washington_Level 03/30/1996 0          18.02     
Lake_Washington_Level 03/31/1996 0          18.085    
Lake_Washington_Level 04/01/1996 0          18.15     
Lake_Washington_Level 04/02/1996 0          18.13     
Lake_Washington_Level 04/03/1996 0          18.15     
Lake_Washington_Level 04/04/1996 0          18.13     
Lake_Washington_Level 04/05/1996 0          18.15     
Lake_Washington_Level 04/06/1996 0          18.2      
Lake_Washington_Level 04/07/1996 0          18.235    
Lake_Washington_Level 04/08/1996 0          18.27     
Lake_Washington_Level 04/09/1996 0          18.28     
Lake_Washington_Level 04/10/1996 0          18.29     
Lake_Washington_Level 04/11/1996 0          18.3      
Lake_Washington_Level 04/12/1996 0          18.3      
Lake_Washington_Level 04/13/1996 0          18.35     
Lake_Washington_Level 04/14/1996 0          18.35     
Lake_Washington_Level 04/15/1996 0          18.35     
Lake_Washington_Level 04/16/1996 0          18.39     
Lake_Washington_Level 04/17/1996 0          18.36     
Lake_Washington_Level 04/18/1996 0          18.37     
Lake_Washington_Level 04/19/1996 0          18.38     
Lake_Washington_Level 04/20/1996 0          18.45     
Lake_Washington_Level 04/21/1996 0          18.465    
Lake_Washington_Level 04/22/1996 0          18.48     
Lake_Washington_Level 04/23/1996 0          18.45     
Lake_Washington_Level 04/24/1996 0          18.45     
Lake_Washington_Level 04/25/1996 0          18.45     
Lake_Washington_Level 04/26/1996 0          18.45     
Lake_Washington_Level 04/27/1996 0          18.45     
Lake_Washington_Level 04/28/1996 0          18.45     
Lake_Washington_Level 04/29/1996 0          18.45     
Lake_Washington_Level 04/30/1996 0          18.45     
Lake_Washington_Level 05/01/1996 0          18.2      
Lake_Washington_Level 05/02/1996 0          18.05     
Lake_Washington_Level 05/03/1996 0          18        
Lake_Washington_Level 05/04/1996 0          17.95     
Lake_Washington_Level 05/05/1996 0          17.95     
Lake_Washington_Level 05/06/1996 0          17.95     
Lake_Washington_Level 05/07/1996 0          18.02     
Lake_Washington_Level 05/08/1996 0          18.12     
Lake_Washington_Level 05/09/1996 0          18.15     
Lake_Washington_Level 05/10/1996 0          18.17     
Lake_Washington_Level 05/11/1996 0          18.22     
Lake_Washington_Level 05/12/1996 0          18.335    
Lake_Washington_Level 05/13/1996 0          18.45     
Lake_Washington_Level 05/14/1996 0          18.46     
Lake_Washington_Level 05/15/1996 0          18.55     
Lake_Washington_Level 05/16/1996 0          18.58     
Lake_Washington_Level 05/17/1996 0          18.52     
Lake_Washington_Level 05/18/1996 0          18.3      
Lake_Washington_Level 05/19/1996 0          18.295    
Lake_Washington_Level 05/20/1996 0          18.29     
Lake_Washington_Level 05/21/1996 0          18.38     
Lake_Washington_Level 05/22/1996 0          18.58     
Lake_Washington_Level 05/23/1996 0          18.6      
Lake_Washington_Level 05/24/1996 0          18.6      
Lake_Washington_Level 05/25/1996 0          18.6      
Lake_Washington_Level 05/26/1996 0          18.59     
Lake_Washington_Level 05/27/1996 0          18.58     
Lake_Washington_Level 05/28/1996 0          18.6      
Lake_Washington_Level 05/29/1996 0          18.6      
Lake_Washington_Level 05/30/1996 0          18.6      
Lake_Washington_Level 05/31/1996 0          18.56     
Lake_Washington_Level 06/01/1996 0          18.5      
Lake_Washington_Level 06/02/1996 0          18.5      
Lake_Washington_Level 06/03/1996 0          18.5      
Lake_Washington_Level 06/04/1996 0          18.5      
Lake_Washington_Level 06/05/1996 0          18.56     
Lake_Washington_Level 06/06/1996 0          18.6      
Lake_Washington_Level 06/07/1996 0          18.6      
Lake_Washington_Level 06/08/1996 0          18.6      
Lake_Washington_Level 06/09/1996 0          18.625    
Lake_Washington_Level 06/10/1996 0          18.65     
Lake_Washington_Level 06/11/1996 0          18.65     
Lake_Washington_Level 06/12/1996 0          18.65     
Lake_Washington_Level 06/13/1996 0          18.7      
Lake_Washington_Level 06/14/1996 0          18.65     
Lake_Washington_Level 06/15/1996 0          18.65     
Lake_Washington_Level 06/16/1996 0          18.65     
Lake_Washington_Level 06/17/1996 0          18.65     
Lake_Washington_Level 06/18/1996 0          18.7      
Lake_Washington_Level 06/19/1996 0          18.7      
Lake_Washington_Level 06/20/1996 0          18.7      
Lake_Washington_Level 06/21/1996 0          18.7      
Lake_Washington_Level 06/22/1996 0          18.74     
Lake_Washington_Level 06/23/1996 0          18.645    
Lake_Washington_Level 06/24/1996 0          18.55     
Lake_Washington_Level 06/25/1996 0          18.6      
Lake_Washington_Level 06/26/1996 0          18.62     
Lake_Washington_Level 06/27/1996 0          18.64     
Lake_Washington_Level 06/28/1996 0          18.64     
Lake_Washington_Level 06/29/1996 0          18.63     
Lake_Washington_Level 06/30/1996 0          18.615    
Lake_Washington_Level 07/01/1996 0          18.6      
Lake_Washington_Level 07/02/1996 0          18.59     
Lake_Washington_Level 07/03/1996 0          18.59     
Lake_Washington_Level 07/04/1996 0          18.59     
Lake_Washington_Level 07/05/1996 0          18.59     
Lake_Washington_Level 07/06/1996 0          18.6      
Lake_Washington_Level 07/07/1996 0          18.575    
Lake_Washington_Level 07/08/1996 0          18.55     
Lake_Washington_Level 07/09/1996 0          18.56     
Lake_Washington_Level 07/10/1996 0          18.55     
Lake_Washington_Level 07/11/1996 0          18.55     
Lake_Washington_Level 07/12/1996 0          18.52     
Lake_Washington_Level 07/13/1996 0          18.51     
Lake_Washington_Level 07/14/1996 0          18.51     
Lake_Washington_Level 07/15/1996 0          18.51     
Lake_Washington_Level 07/16/1996 0          18.52     
Lake_Washington_Level 07/17/1996 0          18.525    
Lake_Washington_Level 07/18/1996 0          18.53     
Lake_Washington_Level 07/19/1996 0          18.55     
Lake_Washington_Level 07/20/1996 0          18.5475   
Lake_Washington_Level 07/21/1996 0          18.545    
Lake_Washington_Level 07/22/1996 0          18.5425   
Lake_Washington_Level 07/23/1996 0          18.54     
Lake_Washington_Level 07/24/1996 0          18.53     
Lake_Washington_Level 07/25/1996 0          18.52     
Lake_Washington_Level 07/26/1996 0          18.5      
Lake_Washington_Level 07/27/1996 0          18.53     
Lake_Washington_Level 07/28/1996 0          18.53     
Lake_Washington_Level 07/29/1996 0          18.53     
Lake_Washington_Level 07/30/1996 0          18.52     
Lake_Washington_Level 07/31/1996 0          18.49     
Lake_Washington_Level 08/01/1996 0          18.49     
Lake_Washington_Level 08/02/1996 0          18.51     
Lake_Washington_Level 08/03/1996 0          18.55     
Lake_Washington_Level 08/04/1996 0          18.54     
Lake_Washington_Level 08/05/1996 0          18.53     
Lake_Washington_Level 08/06/1996 0          18.5      
Lake_Washington_Level 08/07/1996 0          18.5      
Lake_Washington_Level 08/08/1996 0          18.5      
Lake_Washington_Level 08/09/1996 0          18.44     
Lake_Washington_Level 08/10/1996 0          18.45     
Lake_Washington_Level 08/11/1996 0          18.41     
Lake_Washington_Level 08/12/1996 0          18.37     
Lake_Washington_Level 08/13/1996 0          18.37     
Lake_Washington_Level 08/14/1996 0          18.36     
Lake_Washington_Level 08/15/1996 0          18.35     
Lake_Washington_Level 08/16/1996 0          18.32     
Lake_Washington_Level 08/17/1996 0          18.31     
Lake_Washington_Level 08/18/1996 0          18.29     
Lake_Washington_Level 08/19/1996 0          18.27     
Lake_Washington_Level 08/20/1996 0          18.24     
Lake_Washington_Level 08/21/1996 0          18.23     
Lake_Washington_Level 08/22/1996 0          18.2      
Lake_Washington_Level 08/23/1996 0          18.2      
Lake_Washington_Level 08/24/1996 0          18.1875   
Lake_Washington_Level 08/25/1996 0          18.175    
Lake_Washington_Level 08/26/1996 0          18.1625   
Lake_Washington_Level 08/27/1996 0          18.15     
Lake_Washington_Level 08/28/1996 0          18.12     
Lake_Washington_Level 08/29/1996 0          18.11     
Lake_Washington_Level 08/30/1996 0          18.105    
Lake_Washington_Level 08/31/1996 0          18.1      
Lake_Washington_Level 09/01/1996 0          18.02     
Lake_Washington_Level 09/02/1996 0          18        
Lake_Washington_Level 09/03/1996 0          17.98     
Lake_Washington_Level 09/04/1996 0          18.01     
Lake_Washington_Level 09/05/1996 0          18        
Lake_Washington_Level 09/06/1996 0          17.98     
Lake_Washington_Level 09/07/1996 0          17.93     
Lake_Washington_Level 09/08/1996 0          17.885    
Lake_Washington_Level 09/09/1996 0          17.84     
Lake_Washington_Level 09/10/1996 0          17.8      
Lake_Washington_Level 09/11/1996 0          17.78     
Lake_Washington_Level 09/12/1996 0          17.8      
Lake_Washington_Level 09/13/1996 0          17.785    
Lake_Washington_Level 09/14/1996 0          17.77     
Lake_Washington_Level 09/15/1996 0          17.815    
Lake_Washington_Level 09/16/1996 0          17.86     
Lake_Washington_Level 09/17/1996 0          17.86     
Lake_Washington_Level 09/18/1996 0          17.85     
Lake_Washington_Level 09/19/1996 0          17.85     
Lake_Washington_Level 09/20/1996 0          17.89     
Lake_Washington_Level 09/21/1996 0          17.89     
Lake_Washington_Level 09/22/1996 0          17.87     
Lake_Washington_Level 09/23/1996 0          17.85     
Lake_Washington_Level 09/24/1996 0          17.75     
Lake_Washington_Level 09/25/1996 0          17.7      
Lake_Washington_Level 09/26/1996 0          17.63     
Lake_Washington_Level 09/27/1996 0          17.63     
Lake_Washington_Level 09/28/1996 0          17.61     
Lake_Washington_Level 09/29/1996 0          17.615    
Lake_Washington_Level 09/30/1996 0          17.62     
Lake_Washington_Level 10/01/1996 0          17.61     
Lake_Washington_Level 10/02/1996 0          17.6      
Lake_Washington_Level 10/03/1996 0          17.62     
Lake_Washington_Level 10/04/1996 0          17.64     
Lake_Washington_Level 10/05/1996 0          17.61     
Lake_Washington_Level 10/06/1996 0          17.615    
Lake_Washington_Level 10/07/1996 0          17.62     
Lake_Washington_Level 10/08/1996 0          17.55     
Lake_Washington_Level 10/09/1996 0          17.53     
Lake_Washington_Level 10/10/1996 0          17.51     
Lake_Washington_Level 10/11/1996 0          17.49     
Lake_Washington_Level 10/12/1996 0          17.48     
Lake_Washington_Level 10/13/1996 0          17.465    
Lake_Washington_Level 10/14/1996 0          17.45     
Lake_Washington_Level 10/15/1996 0          17.44     
Lake_Washington_Level 10/16/1996 0          17.42     
Lake_Washington_Level 10/17/1996 0          17.41     
Lake_Washington_Level 10/18/1996 0          17.38     
Lake_Washington_Level 10/19/1996 0          17.39     
Lake_Washington_Level 10/20/1996 0          17.375    
Lake_Washington_Level 10/21/1996 0          17.36     
Lake_Washington_Level 10/22/1996 0          17.34     
Lake_Washington_Level 10/23/1996 0          17.32     
Lake_Washington_Level 10/24/1996 0          17.31     
Lake_Washington_Level 10/25/1996 0          17.29     
Lake_Washington_Level 10/26/1996 0          17.29     
Lake_Washington_Level 10/27/1996 0          17.27     
Lake_Washington_Level 10/28/1996 0          17.25     
Lake_Washington_Level 10/29/1996 0          17.25     
Lake_Washington_Level 10/30/1996 0          17.22     
Lake_Washington_Level 10/31/1996 0          17.2      
Lake_Washington_Level 11/01/1996 0          17.19     
Lake_Washington_Level 11/02/1996 0          17.18     
Lake_Washington_Level 11/03/1996 0          17.165    
Lake_Washington_Level 11/04/1996 0          17.15     
Lake_Washington_Level 11/05/1996 0          17.13     
Lake_Washington_Level 11/06/1996 0          17.11     
Lake_Washington_Level 11/07/1996 0          17.1      
Lake_Washington_Level 11/08/1996 0          17.1      
Lake_Washington_Level 11/09/1996 0          17.1      
Lake_Washington_Level 11/10/1996 0          17.08     
Lake_Washington_Level 11/11/1996 0          17.06     
Lake_Washington_Level 11/12/1996 0          17.06     
Lake_Washington_Level 11/13/1996 0          17.01     
Lake_Washington_Level 11/14/1996 0          17        
Lake_Washington_Level 11/15/1996 0          17        
Lake_Washington_Level 11/16/1996 0          16.96     
Lake_Washington_Level 11/17/1996 0          16.95     
Lake_Washington_Level 11/18/1996 0          16.94     
Lake_Washington_Level 11/19/1996 0          16.92     
Lake_Washington_Level 11/20/1996 0          16.91     
Lake_Washington_Level 11/21/1996 0          16.89     
Lake_Washington_Level 11/22/1996 0          16.885    
Lake_Washington_Level 11/23/1996 0          16.88     
Lake_Washington_Level 11/24/1996 0          16.855    
Lake_Washington_Level 11/25/1996 0          16.83     
Lake_Washington_Level 11/26/1996 0          16.82     
Lake_Washington_Level 11/27/1996 0          16.8      
Lake_Washington_Level 11/28/1996 0          16.79     
Lake_Washington_Level 11/29/1996 0          16.775    
Lake_Washington_Level 11/30/1996 0          16.76     
Lake_Washington_Level 12/01/1996 0          16.755    
Lake_Washington_Level 12/02/1996 0          16.75     
Lake_Washington_Level 12/03/1996 0          16.75     
Lake_Washington_Level 12/04/1996 0          16.75     
Lake_Washington_Level 12/05/1996 0          16.75     
Lake_Washington_Level 12/06/1996 0          16.74     
Lake_Washington_Level 12/07/1996 0          16.75     
Lake_Washington_Level 12/08/1996 0          16.75     
Lake_Washington_Level 12/09/1996 0          16.75     
Lake_Washington_Level 12/10/1996 0          16.75     
Lake_Washington_Level 12/11/1996 0          16.75     
Lake_Washington_Level 12/12/1996 0          16.75     
Lake_Washington_Level 12/13/1996 0          16.75     
Lake_Washington_Level 12/14/1996 0          16.75     
Lake_Washington_Level 12/15/1996 0          16.75     
Lake_Washington_Level 12/16/1996 0          16.75     
Lake_Washington_Level 12/17/1996 0          16.75     
Lake_Washington_Level 12/18/1996 0          16.75     
Lake_Washington_Level 12/19/1996 0          16.75     
Lake_Washington_Level 12/20/1996 0          16.75     
Lake_Washington_Level 12/21/1996 0          16.75     
Lake_Washington_Level 12/22/1996 0          16.75     
Lake_Washington_Level 12/23/1996 0          16.75     
Lake_Washington_Level 12/24/1996 0          16.75     
Lake_Washington_Level 12/25/1996 0          16.75     
Lake_Washington_Level 12/26/1996 0          16.75     
Lake_Washington_Level 12/27/1996 0          16.75     
Lake_Washington_Level 12/28/1996 0          16.75     
Lake_Washington_Level 12/29/1996 0          16.75     
Lake_Washington_Level 12/30/1996 0          16.75     
Lake_Washington_Level 12/31/1996 0          16.75     
Lake_Washington_Level 01/01/1997 0          16.87     
Lake_Washington_Level 01/02/1997 0          16.88     
Lake_Washington_Level 01/03/1997 0          16.89     
Lake_Washington_Level 01/04/1997 0          16.75     
Lake_Washington_Level 01/05/1997 0          16.75     
Lake_Washington_Level 01/06/1997 0          16.75     
Lake_Washington_Level 01/07/1997 0          16.75     
Lake_Washington_Level 01/08/1997 0          16.75     
Lake_Washington_Level 01/09/1997 0          16.75     
Lake_Washington_Level 01/10/1997 0          16.75     
Lake_Washington_Level 01/11/1997 0          16.75     
Lake_Washington_Level 01/12/1997 0          16.75     
Lake_Washington_Level 01/13/1997 0          16.75     
Lake_Washington_Level 01/14/1997 0          16.75     
Lake_Washington_Level 01/15/1997 0          16.75     
Lake_Washington_Level 01/16/1997 0          16.75     
Lake_Washington_Level 01/17/1997 0          16.75     
Lake_Washington_Level 01/18/1997 0          16.75     
Lake_Washington_Level 01/19/1997 0          16.75     
Lake_Washington_Level 01/20/1997 0          16.75     
Lake_Washington_Level 01/21/1997 0          16.75     
Lake_Washington_Level 01/22/1997 0          16.75     
Lake_Washington_Level 01/23/1997 0          16.75     
Lake_Washington_Level 01/24/1997 0          16.97     
Lake_Washington_Level 01/25/1997 0          16.95     
Lake_Washington_Level 01/26/1997 0          16.95     
Lake_Washington_Level 01/27/1997 0          16.95     
Lake_Washington_Level 01/28/1997 0          16.95     
Lake_Washington_Level 01/29/1997 0          16.95     
Lake_Washington_Level 01/30/1997 0          16.95     
Lake_Washington_Level 01/31/1997 0          16.95     
Lake_Washington_Level 02/01/1997 0          17.05     
Lake_Washington_Level 02/02/1997 0          17        
Lake_Washington_Level 02/03/1997 0          16.95     
Lake_Washington_Level 02/04/1997 0          16.95     
Lake_Washington_Level 02/05/1997 0          16.95     
Lake_Washington_Level 02/06/1997 0          16.95     
Lake_Washington_Level 02/07/1997 0          16.95     
Lake_Washington_Level 02/08/1997 0          16.95     
Lake_Washington_Level 02/09/1997 0          16.95     
Lake_Washington_Level 02/10/1997 0          16.95     
Lake_Washington_Level 02/11/1997 0          16.95     
Lake_Washington_Level 02/12/1997 0          16.95     
Lake_Washington_Level 02/13/1997 0          16.95     
Lake_Washington_Level 02/14/1997 0          16.95     
Lake_Washington_Level 02/15/1997 0          17        
Lake_Washington_Level 02/16/1997 0          17.025    
Lake_Washington_Level 02/17/1997 0          17.05     
Lake_Washington_Level 02/18/1997 0          17.11     
Lake_Washington_Level 02/19/1997 0          17.14     
Lake_Washington_Level 02/20/1997 0          17.17     
Lake_Washington_Level 02/21/1997 0          17.2      
Lake_Washington_Level 02/22/1997 0          17.22     
Lake_Washington_Level 02/23/1997 0          17.245    
Lake_Washington_Level 02/24/1997 0          17.27     
Lake_Washington_Level 02/25/1997 0          17.3      
Lake_Washington_Level 02/26/1997 0          17.32     
Lake_Washington_Level 02/27/1997 0          17.34     
Lake_Washington_Level 02/28/1997 0          17.37     
Lake_Washington_Level 03/01/1997 0          17.39     
Lake_Washington_Level 03/02/1997 0          17.415    
Lake_Washington_Level 03/03/1997 0          17.44     
Lake_Washington_Level 03/04/1997 0          17.47     
Lake_Washington_Level 03/05/1997 0          17.4925   
Lake_Washington_Level 03/06/1997 0          17.515    
Lake_Washington_Level 03/07/1997 0          17.5375   
Lake_Washington_Level 03/08/1997 0          17.56     
Lake_Washington_Level 03/09/1997 0          17.585    
Lake_Washington_Level 03/10/1997 0          17.61     
Lake_Washington_Level 03/11/1997 0          17.64     
Lake_Washington_Level 03/12/1997 0          17.66     
Lake_Washington_Level 03/13/1997 0          17.69     
Lake_Washington_Level 03/14/1997 0          17.71     
Lake_Washington_Level 03/15/1997 0          17.73     
Lake_Washington_Level 03/16/1997 0          17.755    
Lake_Washington_Level 03/17/1997 0          17.78     
Lake_Washington_Level 03/18/1997 0          17.81     
Lake_Washington_Level 03/19/1997 0          17.83     
Lake_Washington_Level 03/20/1997 0          17.85     
Lake_Washington_Level 03/21/1997 0          17.85     
Lake_Washington_Level 03/22/1997 0          17.85     
Lake_Washington_Level 03/23/1997 0          17.85     
Lake_Washington_Level 03/24/1997 0          17.85     
Lake_Washington_Level 03/25/1997 0          17.85     
Lake_Washington_Level 03/26/1997 0          17.85     
Lake_Washington_Level 03/27/1997 0          17.85     
Lake_Washington_Level 03/28/1997 0          17.85     
Lake_Washington_Level 03/29/1997 0          17.85     
Lake_Washington_Level 03/30/1997 0          17.85     
Lake_Washington_Level 03/31/1997 0          17.85     
Lake_Washington_Level 04/01/1997 0          17.85     
Lake_Washington_Level 04/02/1997 0          17.85     
Lake_Washington_Level 04/03/1997 0          17.85     
Lake_Washington_Level 04/04/1997 0          17.85     
Lake_Washington_Level 04/05/1997 0          17.85     
Lake_Washington_Level 04/06/1997 0          17.85     
Lake_Washington_Level 04/07/1997 0          17.85     
Lake_Washington_Level 04/08/1997 0          17.85     
Lake_Washington_Level 04/09/1997 0          17.85     
Lake_Washington_Level 04/10/1997 0          17.85     
Lake_Washington_Level 04/11/1997 0          17.85     
Lake_Washington_Level 04/12/1997 0          17.85     
Lake_Washington_Level 04/13/1997 0          17.85     
Lake_Washington_Level 04/14/1997 0          17.85     
Lake_Washington_Level 04/15/1997 0          17.85     
Lake_Washington_Level 04/16/1997 0          17.86     
Lake_Washington_Level 04/17/1997 0          17.85     
Lake_Washington_Level 04/18/1997 0          17.85     
Lake_Washington_Level 04/19/1997 0          17.85     
Lake_Washington_Level 04/20/1997 0          17.85     
Lake_Washington_Level 04/21/1997 0          17.85     
Lake_Washington_Level 04/22/1997 0          17.85     
Lake_Washington_Level 04/23/1997 0          17.85     
Lake_Washington_Level 04/24/1997 0          17.85     
Lake_Washington_Level 04/25/1997 0          17.85     
Lake_Washington_Level 04/26/1997 0          17.85     
Lake_Washington_Level 04/27/1997 0          17.85     
Lake_Washington_Level 04/28/1997 0          17.85     
Lake_Washington_Level 04/29/1997 0          17.85     
Lake_Washington_Level 04/30/1997 0          17.85     
Lake_Washington_Level 05/01/1997 0          17.85     
Lake_Washington_Level 05/02/1997 0          17.85     
Lake_Washington_Level 05/03/1997 0          17.85     
Lake_Washington_Level 05/04/1997 0          17.8      
Lake_Washington_Level 05/05/1997 0          17.75     
Lake_Washington_Level 05/06/1997 0          17.95     
Lake_Washington_Level 05/07/1997 0          18.1      
Lake_Washington_Level 05/08/1997 0          17.85     
Lake_Washington_Level 05/09/1997 0          17.85     
Lake_Washington_Level 05/10/1997 0          17.96     
Lake_Washington_Level 05/11/1997 0          18.12     
Lake_Washington_Level 05/12/1997 0          18.28     
Lake_Washington_Level 05/13/1997 0          18.38     
Lake_Washington_Level 05/14/1997 0          18.5      
Lake_Washington_Level 05/15/1997 0          18.45     
Lake_Washington_Level 05/16/1997 0          18.5      
Lake_Washington_Level 05/17/1997 0          18.2      
Lake_Washington_Level 05/18/1997 0          18.125    
Lake_Washington_Level 05/19/1997 0          18.05     
Lake_Washington_Level 05/20/1997 0          18.09     
Lake_Washington_Level 05/21/1997 0          18.22     
Lake_Washington_Level 05/22/1997 0          18.25     
Lake_Washington_Level 05/23/1997 0          18.3      
Lake_Washington_Level 05/24/1997 0          18.39     
Lake_Washington_Level 05/25/1997 0          18.395    
Lake_Washington_Level 05/26/1997 0          18.4      
Lake_Washington_Level 05/27/1997 0          18.47     
Lake_Washington_Level 05/28/1997 0          18.49     
Lake_Washington_Level 05/29/1997 0          18.55     
Lake_Washington_Level 05/30/1997 0          18.6      
Lake_Washington_Level 05/31/1997 0          18.67     
Lake_Washington_Level 06/01/1997 0          18.56     
Lake_Washington_Level 06/02/1997 0          18.45     
Lake_Washington_Level 06/03/1997 0          18.52     
Lake_Washington_Level 06/04/1997 0          18.55     
Lake_Washington_Level 06/05/1997 0          18.6      
Lake_Washington_Level 06/06/1997 0          18.55     
Lake_Washington_Level 06/07/1997 0          18.55     
Lake_Washington_Level 06/08/1997 0          18.55     
Lake_Washington_Level 06/09/1997 0          18.55     
Lake_Washington_Level 06/10/1997 0          18.575    
Lake_Washington_Level 06/11/1997 0          18.6      
Lake_Washington_Level 06/12/1997 0          18.6      
Lake_Washington_Level 06/13/1997 0          18.595    
Lake_Washington_Level 06/14/1997 0          18.59     
Lake_Washington_Level 06/15/1997 0          18.545    
Lake_Washington_Level 06/16/1997 0          18.5      
Lake_Washington_Level 06/17/1997 0          18.55     
Lake_Washington_Level 06/18/1997 0          18.6      
Lake_Washington_Level 06/19/1997 0          18.6      
Lake_Washington_Level 06/20/1997 0          18.65     
Lake_Washington_Level 06/21/1997 0          18.65     
Lake_Washington_Level 06/22/1997 0          18.65     
Lake_Washington_Level 06/23/1997 0          18.65     
Lake_Washington_Level 06/24/1997 0          18.67     
Lake_Washington_Level 06/25/1997 0          18.7      
Lake_Washington_Level 06/26/1997 0          18.7      
Lake_Washington_Level 06/27/1997 0          18.7      
Lake_Washington_Level 06/28/1997 0          18.7      
Lake_Washington_Level 06/29/1997 0          18.7      
Lake_Washington_Level 06/30/1997 0          18.7      
Lake_Washington_Level 07/01/1997 0          18.7      
Lake_Washington_Level 07/02/1997 0          18.65     
Lake_Washington_Level 07/03/1997 0          18.65     
Lake_Washington_Level 07/04/1997 0          18.65     
Lake_Washington_Level 07/05/1997 0          18.65     
Lake_Washington_Level 07/06/1997 0          18.65     
Lake_Washington_Level 07/07/1997 0          18.65     
Lake_Washington_Level 07/08/1997 0          18.65     
Lake_Washington_Level 07/09/1997 0          18.65     
Lake_Washington_Level 07/10/1997 0          18.65     
Lake_Washington_Level 07/11/1997 0          18.65     
Lake_Washington_Level 07/12/1997 0          18.65     
Lake_Washington_Level 07/13/1997 0          18.65     
Lake_Washington_Level 07/14/1997 0          18.65     
Lake_Washington_Level 07/15/1997 0          18.65     
Lake_Washington_Level 07/16/1997 0          18.65     
Lake_Washington_Level 07/17/1997 0          18.65     
Lake_Washington_Level 07/18/1997 0          18.65     
Lake_Washington_Level 07/19/1997 0          18.65     
Lake_Washington_Level 07/20/1997 0          18.65     
Lake_Washington_Level 07/21/1997 0          18.65     
Lake_Washington_Level 07/22/1997 0          18.65     
Lake_Washington_Level 07/23/1997 0          18.65     
Lake_Washington_Level 07/24/1997 0          18.65     
Lake_Washington_Level 07/25/1997 0          18.65     
Lake_Washington_Level 07/26/1997 0          18.65     
Lake_Washington_Level 07/27/1997 0          18.625    
Lake_Washington_Level 07/28/1997 0          18.6      
Lake_Washington_Level 07/29/1997 0          18.65     
Lake_Washington_Level 07/30/1997 0          18.65     
Lake_Washington_Level 07/31/1997 0          18.65     
Lake_Washington_Level 08/01/1997 0          18.65     
Lake_Washington_Level 08/02/1997 0          18.65     
Lake_Washington_Level 08/03/1997 0          18.63     
Lake_Washington_Level 08/04/1997 0          18.61     
Lake_Washington_Level 08/05/1997 0          18.58     
Lake_Washington_Level 08/06/1997 0          18.55     
Lake_Washington_Level 08/07/1997 0          18.55     
Lake_Washington_Level 08/08/1997 0          18.5      
Lake_Washington_Level 08/09/1997 0          18.5      
Lake_Washington_Level 08/10/1997 0          18.475    
Lake_Washington_Level 08/11/1997 0          18.45     
Lake_Washington_Level 08/12/1997 0          18.45     
Lake_Washington_Level 08/13/1997 0          18.4      
Lake_Washington_Level 08/14/1997 0          18.35     
Lake_Washington_Level 08/15/1997 0          18.35     
Lake_Washington_Level 08/16/1997 0          18.3      
Lake_Washington_Level 08/17/1997 0          18.29     
Lake_Washington_Level 08/18/1997 0          18.28     
Lake_Washington_Level 08/19/1997 0          18.2      
Lake_Washington_Level 08/20/1997 0          18.18     
Lake_Washington_Level 08/21/1997 0          18.15     
Lake_Washington_Level 08/22/1997 0          18.15     
Lake_Washington_Level 08/23/1997 0          18.12     
Lake_Washington_Level 08/24/1997 0          18.11     
Lake_Washington_Level 08/25/1997 0          18.1      
Lake_Washington_Level 08/26/1997 0          18.1      
Lake_Washington_Level 08/27/1997 0          18.09375  
Lake_Washington_Level 08/28/1997 0          18.0875   
Lake_Washington_Level 08/29/1997 0          18.08125  
Lake_Washington_Level 08/30/1997 0          18.075    
Lake_Washington_Level 08/31/1997 0          18.06875  
Lake_Washington_Level 09/01/1997 0          18.0625   
Lake_Washington_Level 09/02/1997 0          18.05625  
Lake_Washington_Level 09/03/1997 0          18.05     
Lake_Washington_Level 09/04/1997 0          18.04375  
Lake_Washington_Level 09/05/1997 0          18.0375   
Lake_Washington_Level 09/06/1997 0          18.03125  
Lake_Washington_Level 09/07/1997 0          18.025    
Lake_Washington_Level 09/08/1997 0          18.01875  
Lake_Washington_Level 09/09/1997 0          18.0125   
Lake_Washington_Level 09/10/1997 0          18.00625  
Lake_Washington_Level 09/11/1997 0          18        
Lake_Washington_Level 09/12/1997 0          17.99375  
Lake_Washington_Level 09/13/1997 0          17.9875   
Lake_Washington_Level 09/14/1997 0          17.98125  
Lake_Washington_Level 09/15/1997 0          17.975    
Lake_Washington_Level 09/16/1997 0          17.96875  
Lake_Washington_Level 09/17/1997 0          17.9625   
Lake_Washington_Level 09/18/1997 0          17.95625  
Lake_Washington_Level 09/19/1997 0          17.95     
Lake_Washington_Level 09/20/1997 0          17.94375  
Lake_Washington_Level 09/21/1997 0          17.9375   
Lake_Washington_Level 09/22/1997 0          17.93125  
Lake_Washington_Level 09/23/1997 0          17.925    
Lake_Washington_Level 09/24/1997 0          17.91875  
Lake_Washington_Level 09/25/1997 0          17.9125   
Lake_Washington_Level 09/26/1997 0          17.90625  
Lake_Washington_Level 09/27/1997 0          17.9      
Lake_Washington_Level 09/28/1997 0          17.775    
Lake_Washington_Level 09/29/1997 0          17.65     
Lake_Washington_Level 09/30/1997 0          17.67     
Lake_Washington_Level 10/01/1997 0          17.67     
Lake_Washington_Level 10/02/1997 0          17.76     
Lake_Washington_Level 10/03/1997 0          17.75     
Lake_Washington_Level 10/04/1997 0          17.6      
Lake_Washington_Level 10/05/1997 0          17.585    
Lake_Washington_Level 10/06/1997 0          17.57     
Lake_Washington_Level 10/07/1997 0          17.55     
Lake_Washington_Level 10/08/1997 0          17.55     
Lake_Washington_Level 10/09/1997 0          17.67     
Lake_Washington_Level 10/10/1997 0          17.65     
Lake_Washington_Level 10/11/1997 0          17.5      
Lake_Washington_Level 10/12/1997 0          17.435    
Lake_Washington_Level 10/13/1997 0          17.37     
Lake_Washington_Level 10/14/1997 0          17.39     
Lake_Washington_Level 10/15/1997 0          17.37     
Lake_Washington_Level 10/16/1997 0          17.41     
Lake_Washington_Level 10/17/1997 0          17.41     
Lake_Washington_Level 10/18/1997 0          17.4      
Lake_Washington_Level 10/19/1997 0          17.385    
Lake_Washington_Level 10/20/1997 0          17.37     
Lake_Washington_Level 10/21/1997 0          17.36     
Lake_Washington_Level 10/22/1997 0          17.34     
Lake_Washington_Level 10/23/1997 0          17.33     
Lake_Washington_Level 10/24/1997 0          17.31     
Lake_Washington_Level 10/25/1997 0          17.29     
Lake_Washington_Level 10/26/1997 0          17.27     
Lake_Washington_Level 10/27/1997 0          17.25     
Lake_Washington_Level 10/28/1997 0          17.25     
Lake_Washington_Level 10/29/1997 0          17.23     
Lake_Washington_Level 10/30/1997 0          17.22     
Lake_Washington_Level 10/31/1997 0          17.2      
Lake_Washington_Level 11/01/1997 0          17.19     
Lake_Washington_Level 11/02/1997 0          17.175    
Lake_Washington_Level 11/03/1997 0          17.16     
Lake_Washington_Level 11/04/1997 0          17.16     
Lake_Washington_Level 11/05/1997 0          17.13     
Lake_Washington_Level 11/06/1997 0          17.12     
Lake_Washington_Level 11/07/1997 0          17.1      
Lake_Washington_Level 11/08/1997 0          17.085    
Lake_Washington_Level 11/09/1997 0          17.07     
Lake_Washington_Level 11/10/1997 0          17.055    
Lake_Washington_Level 11/11/1997 0          17.04     
Lake_Washington_Level 11/12/1997 0          17.03     
Lake_Washington_Level 11/13/1997 0          17.02     
Lake_Washington_Level 11/14/1997 0          17        
Lake_Washington_Level 11/15/1997 0          16.98     
Lake_Washington_Level 11/16/1997 0          16.97     
Lake_Washington_Level 11/17/1997 0          16.96     
Lake_Washington_Level 11/18/1997 0          16.94     
Lake_Washington_Level 11/19/1997 0          16.92     
Lake_Washington_Level 11/20/1997 0          16.91     
Lake_Washington_Level 11/21/1997 0          16.89     
Lake_Washington_Level 11/22/1997 0          16.88     
Lake_Washington_Level 11/23/1997 0          16.865    
Lake_Washington_Level 11/24/1997 0          16.85     
Lake_Washington_Level 11/25/1997 0          16.84     
Lake_Washington_Level 11/26/1997 0          16.82     
Lake_Washington_Level 11/27/1997 0          16.80667  
Lake_Washington_Level 11/28/1997 0          16.79333  
Lake_Washington_Level 11/29/1997 0          16.78     
Lake_Washington_Level 11/30/1997 0          16.765    
Lake_Washington_Level 12/01/1997 0          16.75     
Lake_Washington_Level 12/02/1997 0          16.75     
Lake_Washington_Level 12/03/1997 0          16.75     
Lake_Washington_Level 12/04/1997 0          16.75     
Lake_Washington_Level 12/05/1997 0          16.75     
Lake_Washington_Level 12/06/1997 0          16.75     
Lake_Washington_Level 12/07/1997 0          16.75     
Lake_Washington_Level 12/08/1997 0          16.75     
Lake_Washington_Level 12/09/1997 0          16.75     
Lake_Washington_Level 12/10/1997 0          16.75     
Lake_Washington_Level 12/11/1997 0          16.75     
Lake_Washington_Level 12/12/1997 0          16.75     
Lake_Washington_Level 12/13/1997 0          16.75     
Lake_Washington_Level 12/14/1997 0          16.75     
Lake_Washington_Level 12/15/1997 0          16.75     
Lake_Washington_Level 12/16/1997 0          16.75     
Lake_Washington_Level 12/17/1997 0          16.75     
Lake_Washington_Level 12/18/1997 0          16.75     
Lake_Washington_Level 12/19/1997 0          16.75     
Lake_Washington_Level 12/20/1997 0          16.75     
Lake_Washington_Level 12/21/1997 0          16.75     
Lake_Washington_Level 12/22/1997 0          16.75     
Lake_Washington_Level 12/23/1997 0          16.75     
Lake_Washington_Level 12/24/1997 0          16.75     
Lake_Washington_Level 12/25/1997 0          16.75     
Lake_Washington_Level 12/26/1997 0          16.75     
Lake_Washington_Level 12/27/1997 0          16.75     
Lake_Washington_Level 12/28/1997 0          16.75     
Lake_Washington_Level 12/29/1997 0          16.75     
Lake_Washington_Level 12/30/1997 0          16.75     
Lake_Washington_Level 12/31/1997 0          16.75     
Lake_Washington_Level 01/01/1998 0          16.81667  
Lake_Washington_Level 01/02/1998 0          16.88333  
Lake_Washington_Level 01/03/1998 0          16.95     
Lake_Washington_Level 01/04/1998 0          16.95     
Lake_Washington_Level 01/05/1998 0          16.95     
Lake_Washington_Level 01/06/1998 0          16.95     
Lake_Washington_Level 01/07/1998 0          16.95     
Lake_Washington_Level 01/08/1998 0          16.95     
Lake_Washington_Level 01/09/1998 0          16.95     
Lake_Washington_Level 01/10/1998 0          16.95     
Lake_Washington_Level 01/11/1998 0          16.95     
Lake_Washington_Level 01/12/1998 0          16.95     
Lake_Washington_Level 01/13/1998 0          16.95     
Lake_Washington_Level 01/14/1998 0          16.95     
Lake_Washington_Level 01/15/1998 0          16.95     
Lake_Washington_Level 01/16/1998 0          16.95     
Lake_Washington_Level 01/17/1998 0          16.95     
Lake_Washington_Level 01/18/1998 0          16.95     
Lake_Washington_Level 01/19/1998 0          16.95     
Lake_Washington_Level 01/20/1998 0          16.95     
Lake_Washington_Level 01/21/1998 0          16.95     
Lake_Washington_Level 01/22/1998 0          16.95     
Lake_Washington_Level 01/23/1998 0          16.95     
Lake_Washington_Level 01/24/1998 0          16.95     
Lake_Washington_Level 01/25/1998 0          16.95     
Lake_Washington_Level 01/26/1998 0          16.95     
Lake_Washington_Level 01/27/1998 0          16.95     
Lake_Washington_Level 01/28/1998 0          16.95     
Lake_Washington_Level 01/29/1998 0          16.95     
Lake_Washington_Level 01/30/1998 0          16.95     
Lake_Washington_Level 01/31/1998 0          16.95     
Lake_Washington_Level 02/01/1998 0          16.95     
Lake_Washington_Level 02/02/1998 0          16.95     
Lake_Washington_Level 02/03/1998 0          16.95     
Lake_Washington_Level 02/04/1998 0          16.95     
Lake_Washington_Level 02/05/1998 0          17.05     
Lake_Washington_Level 02/06/1998 0          17.05     
Lake_Washington_Level 02/07/1998 0          17.05     
Lake_Washington_Level 02/08/1998 0          17.05     
Lake_Washington_Level 02/09/1998 0          17.05     
Lake_Washington_Level 02/10/1998 0          17.05     
Lake_Washington_Level 02/11/1998 0          17.05     
Lake_Washington_Level 02/12/1998 0          17.05     
Lake_Washington_Level 02/13/1998 0          17.05     
Lake_Washington_Level 02/14/1998 0          17.05     
Lake_Washington_Level 02/15/1998 0          17.06     
Lake_Washington_Level 02/16/1998 0          17.07     
Lake_Washington_Level 02/17/1998 0          17.1      
Lake_Washington_Level 02/18/1998 0          17.12     
Lake_Washington_Level 02/19/1998 0          17.15     
Lake_Washington_Level 02/20/1998 0          17.17     
Lake_Washington_Level 02/21/1998 0          17.2      
Lake_Washington_Level 02/22/1998 0          17.225    
Lake_Washington_Level 02/23/1998 0          17.25     
Lake_Washington_Level 02/24/1998 0          17.27     
Lake_Washington_Level 02/25/1998 0          17.31     
Lake_Washington_Level 02/26/1998 0          17.35     
Lake_Washington_Level 02/27/1998 0          17.39     
Lake_Washington_Level 02/28/1998 0          17.43     
Lake_Washington_Level 03/01/1998 0          17.47     
Lake_Washington_Level 03/02/1998 0          17.51     
Lake_Washington_Level 03/03/1998 0          17.55     
Lake_Washington_Level 03/04/1998 0          17.47     
Lake_Washington_Level 03/05/1998 0          17.49     
Lake_Washington_Level 03/06/1998 0          17.514    
Lake_Washington_Level 03/07/1998 0          17.538    
Lake_Washington_Level 03/08/1998 0          17.562    
Lake_Washington_Level 03/09/1998 0          17.586    
Lake_Washington_Level 03/10/1998 0          17.61     
Lake_Washington_Level 03/11/1998 0          17.64     
Lake_Washington_Level 03/12/1998 0          17.66     
Lake_Washington_Level 03/13/1998 0          17.69     
Lake_Washington_Level 03/14/1998 0          17.71     
Lake_Washington_Level 03/15/1998 0          17.73     
Lake_Washington_Level 03/16/1998 0          17.75     
Lake_Washington_Level 03/17/1998 0          17.78     
Lake_Washington_Level 03/18/1998 0          17.81     
Lake_Washington_Level 03/19/1998 0          17.83     
Lake_Washington_Level 03/20/1998 0          17.86     
Lake_Washington_Level 03/21/1998 0          17.88     
Lake_Washington_Level 03/22/1998 0          17.905    
Lake_Washington_Level 03/23/1998 0          17.93     
Lake_Washington_Level 03/24/1998 0          17.95     
Lake_Washington_Level 03/25/1998 0          17.98     
Lake_Washington_Level 03/26/1998 0          18        
Lake_Washington_Level 03/27/1998 0          18.03     
Lake_Washington_Level 03/28/1998 0          18.05     
Lake_Washington_Level 03/29/1998 0          18.075    
Lake_Washington_Level 03/30/1998 0          18.1      
Lake_Washington_Level 03/31/1998 0          18.13     
Lake_Washington_Level 04/01/1998 0          18.15     
Lake_Washington_Level 04/02/1998 0          18.17     
Lake_Washington_Level 04/03/1998 0          18.18     
Lake_Washington_Level 04/04/1998 0          18.2      
Lake_Washington_Level 04/05/1998 0          18.165    
Lake_Washington_Level 04/06/1998 0          18.13     
Lake_Washington_Level 04/07/1998 0          18.15     
Lake_Washington_Level 04/08/1998 0          18.26     
Lake_Washington_Level 04/09/1998 0          18.27     
Lake_Washington_Level 04/10/1998 0          18.29     
Lake_Washington_Level 04/11/1998 0          18.3      
Lake_Washington_Level 04/12/1998 0          18.315    
Lake_Washington_Level 04/13/1998 0          18.33     
Lake_Washington_Level 04/14/1998 0          18.35     
Lake_Washington_Level 04/15/1998 0          18.36     
Lake_Washington_Level 04/16/1998 0          18.38     
Lake_Washington_Level 04/17/1998 0          18.39     
Lake_Washington_Level 04/18/1998 0          18.41     
Lake_Washington_Level 04/19/1998 0          18.365    
Lake_Washington_Level 04/20/1998 0          18.32     
Lake_Washington_Level 04/21/1998 0          18.31     
Lake_Washington_Level 04/22/1998 0          18.35     
Lake_Washington_Level 04/23/1998 0          18.37     
Lake_Washington_Level 04/24/1998 0          18.48     
Lake_Washington_Level 04/25/1998 0          18.51     
Lake_Washington_Level 04/26/1998 0          18.51     
Lake_Washington_Level 04/27/1998 0          18.51     
Lake_Washington_Level 04/28/1998 0          18.52     
Lake_Washington_Level 04/29/1998 0          18.53     
Lake_Washington_Level 04/30/1998 0          18.55     
Lake_Washington_Level 05/01/1998 0          18.53     
Lake_Washington_Level 05/02/1998 0          18.55     
Lake_Washington_Level 05/03/1998 0          18.55     
Lake_Washington_Level 05/04/1998 0          18.55     
Lake_Washington_Level 05/05/1998 0          18.55     
Lake_Washington_Level 05/06/1998 0          18.55     
Lake_Washington_Level 05/07/1998 0          18.55     
Lake_Washington_Level 05/08/1998 0          18.6      
Lake_Washington_Level 05/09/1998 0          18.61     
Lake_Washington_Level 05/10/1998 0          18.62     
Lake_Washington_Level 05/11/1998 0          18.63     
Lake_Washington_Level 05/12/1998 0          18.64     
Lake_Washington_Level 05/13/1998 0          18.65     
Lake_Washington_Level 05/14/1998 0          18.65     
Lake_Washington_Level 05/15/1998 0          18.6      
Lake_Washington_Level 05/16/1998 0          18.55     
Lake_Washington_Level 05/17/1998 0          18.525    
Lake_Washington_Level 05/18/1998 0          18.5      
Lake_Washington_Level 05/19/1998 0          18.5      
Lake_Washington_Level 05/20/1998 0          18.5      
Lake_Washington_Level 05/21/1998 0          18.5      
Lake_Washington_Level 05/22/1998 0          18.5      
Lake_Washington_Level 05/23/1998 0          18.5      
Lake_Washington_Level 05/24/1998 0          18.53     
Lake_Washington_Level 05/25/1998 0          18.56     
Lake_Washington_Level 05/26/1998 0          18.6      
Lake_Washington_Level 05/27/1998 0          18.55     
Lake_Washington_Level 05/28/1998 0          18.65     
Lake_Washington_Level 05/29/1998 0          18.52     
Lake_Washington_Level 05/30/1998 0          18.5      
Lake_Washington_Level 05/31/1998 0          18.5      
Lake_Washington_Level 06/01/1998 0          18.5      
Lake_Washington_Level 06/02/1998 0          18.5      
Lake_Washington_Level 06/03/1998 0          18.5      
Lake_Washington_Level 06/04/1998 0          18.55     
Lake_Washington_Level 06/05/1998 0          18.6      
Lake_Washington_Level 06/06/1998 0          18.6      
Lake_Washington_Level 06/07/1998 0          18.6      
Lake_Washington_Level 06/08/1998 0          18.6      
Lake_Washington_Level 06/09/1998 0          18.6      
Lake_Washington_Level 06/10/1998 0          18.6      
Lake_Washington_Level 06/11/1998 0          18.6      
Lake_Washington_Level 06/12/1998 0          18.6      
Lake_Washington_Level 06/13/1998 0          18.6125   
Lake_Washington_Level 06/14/1998 0          18.625    
Lake_Washington_Level 06/15/1998 0          18.6375   
Lake_Washington_Level 06/16/1998 0          18.65     
Lake_Washington_Level 06/17/1998 0          18.65     
Lake_Washington_Level 06/18/1998 0          18.65     
Lake_Washington_Level 06/19/1998 0          18.65     
Lake_Washington_Level 06/20/1998 0          18.65     
Lake_Washington_Level 06/21/1998 0          18.65     
Lake_Washington_Level 06/22/1998 0          18.65     
Lake_Washington_Level 06/23/1998 0          18.65     
Lake_Washington_Level 06/24/1998 0          18.65     
Lake_Washington_Level 06/25/1998 0          18.65     
Lake_Washington_Level 06/26/1998 0          18.65     
Lake_Washington_Level 06/27/1998 0          18.65     
Lake_Washington_Level 06/28/1998 0          18.63     
Lake_Washington_Level 06/29/1998 0          18.63     
Lake_Washington_Level 06/30/1998 0          18.6      
Lake_Washington_Level 07/01/1998 0          18.6      
Lake_Washington_Level 07/02/1998 0          18.6      
Lake_Washington_Level 07/03/1998 0          18.55     
Lake_Washington_Level 07/04/1998 0          18.55     
Lake_Washington_Level 07/05/1998 0          18.575    
Lake_Washington_Level 07/06/1998 0          18.6      
Lake_Washington_Level 07/07/1998 0          18.6      
Lake_Washington_Level 07/08/1998 0          18.55     
Lake_Washington_Level 07/09/1998 0          18.5      
Lake_Washington_Level 07/10/1998 0          18.5      
Lake_Washington_Level 07/11/1998 0          18.5      
Lake_Washington_Level 07/12/1998 0          18.475    
Lake_Washington_Level 07/13/1998 0          18.45     
Lake_Washington_Level 07/14/1998 0          18.4      
Lake_Washington_Level 07/15/1998 0          18.4      
Lake_Washington_Level 07/16/1998 0          18.4      
Lake_Washington_Level 07/17/1998 0          18.4      
Lake_Washington_Level 07/18/1998 0          18.4      
Lake_Washington_Level 07/19/1998 0          18.36     
Lake_Washington_Level 07/20/1998 0          18.32     
Lake_Washington_Level 07/21/1998 0          18.3      
Lake_Washington_Level 07/22/1998 0          18.3      
Lake_Washington_Level 07/23/1998 0          18.27     
Lake_Washington_Level 07/24/1998 0          18.27     
Lake_Washington_Level 07/25/1998 0          18.25     
Lake_Washington_Level 07/26/1998 0          18.235    
Lake_Washington_Level 07/27/1998 0          18.22     
Lake_Washington_Level 07/28/1998 0          18.17     
Lake_Washington_Level 07/29/1998 0          18.6      
Lake_Washington_Level 07/30/1998 0          18.15     
Lake_Washington_Level 07/31/1998 0          18.15     
Lake_Washington_Level 08/01/1998 0          18.1      
Lake_Washington_Level 08/02/1998 0          18.075    
Lake_Washington_Level 08/03/1998 0          18.05     
Lake_Washington_Level 08/04/1998 0          18.05     
Lake_Washington_Level 08/05/1998 0          18        
Lake_Washington_Level 08/06/1998 0          18        
Lake_Washington_Level 08/07/1998 0          18        
Lake_Washington_Level 08/08/1998 0          17.97     
Lake_Washington_Level 08/09/1998 0          17.935    
Lake_Washington_Level 08/10/1998 0          17.9      
Lake_Washington_Level 08/11/1998 0          17.86     
Lake_Washington_Level 08/12/1998 0          17.85     
Lake_Washington_Level 08/13/1998 0          17.83     
Lake_Washington_Level 08/14/1998 0          17.82     
Lake_Washington_Level 08/15/1998 0          17.78     
Lake_Washington_Level 08/16/1998 0          17.77     
Lake_Washington_Level 08/17/1998 0          17.76     
Lake_Washington_Level 08/18/1998 0          17.75     
Lake_Washington_Level 08/19/1998 0          17.73     
Lake_Washington_Level 08/20/1998 0          17.705    
Lake_Washington_Level 08/21/1998 0          17.68     
Lake_Washington_Level 08/22/1998 0          17.68     
Lake_Washington_Level 08/23/1998 0          17.665    
Lake_Washington_Level 08/24/1998 0          17.65     
Lake_Washington_Level 08/25/1998 0          17.63     
Lake_Washington_Level 08/26/1998 0          17.62     
Lake_Washington_Level 08/27/1998 0          17.6      
Lake_Washington_Level 08/28/1998 0          17.58     
Lake_Washington_Level 08/29/1998 0          17.57     
Lake_Washington_Level 08/30/1998 0          17.55     
Lake_Washington_Level 08/31/1998 0          17.53     
Lake_Washington_Level 09/01/1998 0          17.5      
Lake_Washington_Level 09/02/1998 0          17.5      
Lake_Washington_Level 09/03/1998 0          17.47     
Lake_Washington_Level 09/04/1998 0          17.45     
Lake_Washington_Level 09/05/1998 0          17.43     
Lake_Washington_Level 09/06/1998 0          17.41     
Lake_Washington_Level 09/07/1998 0          17.39     
Lake_Washington_Level 09/08/1998 0          17.37     
Lake_Washington_Level 09/09/1998 0          17.34     
Lake_Washington_Level 09/10/1998 0          17.32     
Lake_Washington_Level 09/11/1998 0          17.295    
Lake_Washington_Level 09/12/1998 0          17.27     
Lake_Washington_Level 09/13/1998 0          17.26     
Lake_Washington_Level 09/14/1998 0          17.25     
Lake_Washington_Level 09/15/1998 0          17.22     
Lake_Washington_Level 09/16/1998 0          17.19     
Lake_Washington_Level 09/17/1998 0          17.19     
Lake_Washington_Level 09/18/1998 0          17.2      
Lake_Washington_Level 09/19/1998 0          17.2      
Lake_Washington_Level 09/20/1998 0          17.17     
Lake_Washington_Level 09/21/1998 0          17.17     
Lake_Washington_Level 09/22/1998 0          17.17     
Lake_Washington_Level 09/23/1998 0          17.15     
Lake_Washington_Level 09/24/1998 0          17.15     
Lake_Washington_Level 09/25/1998 0          17.13     
Lake_Washington_Level 09/26/1998 0          17.2      
Lake_Washington_Level 09/27/1998 0          17.22     
Lake_Washington_Level 09/28/1998 0          17.21     
Lake_Washington_Level 09/29/1998 0          17.2      
Lake_Washington_Level 09/30/1998 0          17.19     
Lake_Washington_Level 10/01/1998 0          17.2      
Lake_Washington_Level 10/02/1998 0          17.2      
Lake_Washington_Level 10/03/1998 0          17.2      
Lake_Washington_Level 10/04/1998 0          17.25     
Lake_Washington_Level 10/05/1998 0          17.26     
Lake_Washington_Level 10/06/1998 0          17.25     
Lake_Washington_Level 10/07/1998 0          17.26     
Lake_Washington_Level 10/08/1998 0          17.27     
Lake_Washington_Level 10/09/1998 0          17.28     
Lake_Washington_Level 10/10/1998 0          17.28     
Lake_Washington_Level 10/11/1998 0          17.3      
Lake_Washington_Level 10/12/1998 0          17.3      
Lake_Washington_Level 10/13/1998 0          17.39     
Lake_Washington_Level 10/14/1998 0          17.4      
Lake_Washington_Level 10/15/1998 0          17.45     
Lake_Washington_Level 10/16/1998 0          17.36     
Lake_Washington_Level 10/17/1998 0          17.3      
Lake_Washington_Level 10/18/1998 0          17.3      
Lake_Washington_Level 10/19/1998 0          17.3      
Lake_Washington_Level 10/20/1998 0          17.25     
Lake_Washington_Level 10/21/1998 0          17.25     
Lake_Washington_Level 10/22/1998 0          17.25     
Lake_Washington_Level 10/23/1998 0          17.25     
Lake_Washington_Level 10/24/1998 0          17.25     
Lake_Washington_Level 10/25/1998 0          17.25     
Lake_Washington_Level 10/26/1998 0          17.25     
Lake_Washington_Level 10/27/1998 0          17.25     
Lake_Washington_Level 10/28/1998 0          17.28     
Lake_Washington_Level 10/29/1998 0          17.22     
Lake_Washington_Level 10/30/1998 0          17.22     
Lake_Washington_Level 10/31/1998 0          17.2      
Lake_Washington_Level 11/01/1998 0          17.19     
Lake_Washington_Level 11/02/1998 0          17.17     
Lake_Washington_Level 11/03/1998 0          17.17     
Lake_Washington_Level 11/04/1998 0          17.14     
Lake_Washington_Level 11/05/1998 0          17.12     
Lake_Washington_Level 11/06/1998 0          17.11     
Lake_Washington_Level 11/07/1998 0          17.1      
Lake_Washington_Level 11/08/1998 0          17.08     
Lake_Washington_Level 11/09/1998 0          17.07     
Lake_Washington_Level 11/10/1998 0          17.05     
Lake_Washington_Level 11/11/1998 0          17.04     
Lake_Washington_Level 11/12/1998 0          17.04     
Lake_Washington_Level 11/13/1998 0          17.01     
Lake_Washington_Level 11/14/1998 0          17        
Lake_Washington_Level 11/15/1998 0          16.98     
Lake_Washington_Level 11/16/1998 0          16.97     
Lake_Washington_Level 11/17/1998 0          16.95     
Lake_Washington_Level 11/18/1998 0          16.93     
Lake_Washington_Level 11/19/1998 0          16.93     
Lake_Washington_Level 11/20/1998 0          16.91     
Lake_Washington_Level 11/21/1998 0          16.89     
Lake_Washington_Level 11/22/1998 0          16.88     
Lake_Washington_Level 11/23/1998 0          16.87     
Lake_Washington_Level 11/24/1998 0          16.85     
Lake_Washington_Level 11/25/1998 0          16.85     
Lake_Washington_Level 11/26/1998 0          16.84     
Lake_Washington_Level 11/27/1998 0          16.81     
Lake_Washington_Level 11/28/1998 0          16.79     
Lake_Washington_Level 11/29/1998 0          16.78     
Lake_Washington_Level 11/30/1998 0          16.76     
Lake_Washington_Level 12/01/1998 0          16.75     
Lake_Washington_Level 12/02/1998 0          16.75     
Lake_Washington_Level 12/03/1998 0          16.75     
Lake_Washington_Level 12/04/1998 0          16.75     
Lake_Washington_Level 12/05/1998 0          16.75     
Lake_Washington_Level 12/06/1998 0          16.75     
Lake_Washington_Level 12/07/1998 0          16.75     
Lake_Washington_Level 12/08/1998 0          16.75     
Lake_Washington_Level 12/09/1998 0          16.75     
Lake_Washington_Level 12/10/1998 0          16.75     
Lake_Washington_Level 12/11/1998 0          16.75     
Lake_Washington_Level 12/12/1998 0          16.75     
Lake_Washington_Level 12/13/1998 0          16.75     
Lake_Washington_Level 12/14/1998 0          16.75     
Lake_Washington_Level 12/15/1998 0          16.75     
Lake_Washington_Level 12/16/1998 0          16.75     
Lake_Washington_Level 12/17/1998 0          16.75     
Lake_Washington_Level 12/18/1998 0          16.75     
Lake_Washington_Level 12/19/1998 0          16.75     
Lake_Washington_Level 12/20/1998 0          16.75     
Lake_Washington_Level 12/21/1998 0          16.75     
Lake_Washington_Level 12/22/1998 0          16.75     
Lake_Washington_Level 12/23/1998 0          16.75     
Lake_Washington_Level 12/24/1998 0          16.75     
Lake_Washington_Level 12/25/1998 0          16.75     
Lake_Washington_Level 12/26/1998 0          16.75     
Lake_Washington_Level 12/27/1998 0          16.75     
Lake_Washington_Level 12/28/1998 0          16.75     
Lake_Washington_Level 12/29/1998 0          16.75     
Lake_Washington_Level 12/30/1998 0          16.75     
Lake_Washington_Level 12/31/1998 0          16.75     
Lake_Washington_Level 01/01/1999 0          16.75     
Lake_Washington_Level 01/02/1999 0          16.75     
Lake_Washington_Level 01/03/1999 0          16.75     
Lake_Washington_Level 01/04/1999 0          16.75     
Lake_Washington_Level 01/05/1999 0          16.75     
Lake_Washington_Level 01/06/1999 0          16.75     
Lake_Washington_Level 01/07/1999 0          16.75     
Lake_Washington_Level 01/08/1999 0          16.75     
Lake_Washington_Level 01/09/1999 0          16.75     
Lake_Washington_Level 01/10/1999 0          16.75     
Lake_Washington_Level 01/11/1999 0          16.75     
Lake_Washington_Level 01/12/1999 0          16.75     
Lake_Washington_Level 01/13/1999 0          16.75     
Lake_Washington_Level 01/14/1999 0          16.75     
Lake_Washington_Level 01/15/1999 0          16.75     
Lake_Washington_Level 01/16/1999 0          16.75     
Lake_Washington_Level 01/17/1999 0          16.75     
Lake_Washington_Level 01/18/1999 0          16.75     
Lake_Washington_Level 01/19/1999 0          16.75     
Lake_Washington_Level 01/20/1999 0          16.76     
Lake_Washington_Level 01/21/1999 0          16.75     
Lake_Washington_Level 01/22/1999 0          16.75     
Lake_Washington_Level 01/23/1999 0          16.75     
Lake_Washington_Level 01/24/1999 0          16.75     
Lake_Washington_Level 01/25/1999 0          16.75     
Lake_Washington_Level 01/26/1999 0          16.88     
Lake_Washington_Level 01/27/1999 0          16.85     
Lake_Washington_Level 01/28/1999 0          16.75     
Lake_Washington_Level 01/29/1999 0          16.85     
Lake_Washington_Level 01/30/1999 0          16.85     
Lake_Washington_Level 01/31/1999 0          16.85     
Lake_Washington_Level 02/01/1999 0          16.85     
Lake_Washington_Level 02/02/1999 0          16.85     
Lake_Washington_Level 02/03/1999 0          16.85     
Lake_Washington_Level 02/04/1999 0          16.85     
Lake_Washington_Level 02/05/1999 0          16.85     
Lake_Washington_Level 02/06/1999 0          16.85     
Lake_Washington_Level 02/07/1999 0          16.85     
Lake_Washington_Level 02/08/1999 0          16.85     
Lake_Washington_Level 02/09/1999 0          16.85     
Lake_Washington_Level 02/10/1999 0          16.85     
Lake_Washington_Level 02/11/1999 0          16.85     
Lake_Washington_Level 02/12/1999 0          16.85     
Lake_Washington_Level 02/13/1999 0          16.85     
Lake_Washington_Level 02/14/1999 0          16.85     
Lake_Washington_Level 02/15/1999 0          16.85     
Lake_Washington_Level 02/16/1999 0          16.85     
Lake_Washington_Level 02/17/1999 0          16.85     
Lake_Washington_Level 02/18/1999 0          16.85     
Lake_Washington_Level 02/19/1999 0          17.05     
Lake_Washington_Level 02/20/1999 0          17.17     
Lake_Washington_Level 02/21/1999 0          17.2      
Lake_Washington_Level 02/22/1999 0          17.2      
Lake_Washington_Level 02/23/1999 0          17.25     
Lake_Washington_Level 02/24/1999 0          17.28     
Lake_Washington_Level 02/25/1999 0          17.29     
Lake_Washington_Level 02/26/1999 0          17.32     
Lake_Washington_Level 02/27/1999 0          17.34     
Lake_Washington_Level 02/28/1999 0          17.37     
Lake_Washington_Level 03/01/1999 0          17.39     
Lake_Washington_Level 03/02/1999 0          17.42     
Lake_Washington_Level 03/03/1999 0          17.44     
Lake_Washington_Level 03/04/1999 0          17.47     
Lake_Washington_Level 03/05/1999 0          17.49     
Lake_Washington_Level 03/06/1999 0          17.51     
Lake_Washington_Level 03/07/1999 0          17.54     
Lake_Washington_Level 03/08/1999 0          17.56     
Lake_Washington_Level 03/09/1999 0          17.59     
Lake_Washington_Level 03/10/1999 0          17.61     
Lake_Washington_Level 03/11/1999 0          17.64     
Lake_Washington_Level 03/12/1999 0          17.665    
Lake_Washington_Level 03/13/1999 0          17.69     
Lake_Washington_Level 03/14/1999 0          17.71     
Lake_Washington_Level 03/15/1999 0          17.73     
Lake_Washington_Level 03/16/1999 0          17.76     
Lake_Washington_Level 03/17/1999 0          17.78     
Lake_Washington_Level 03/18/1999 0          17.81     
Lake_Washington_Level 03/19/1999 0          17.83     
Lake_Washington_Level 03/20/1999 0          17.86     
Lake_Washington_Level 03/21/1999 0          17.88     
Lake_Washington_Level 03/22/1999 0          17.91     
Lake_Washington_Level 03/23/1999 0          17.93     
Lake_Washington_Level 03/24/1999 0          17.95     
Lake_Washington_Level 03/25/1999 0          17.98     
Lake_Washington_Level 03/26/1999 0          18        
Lake_Washington_Level 03/27/1999 0          18.03     
Lake_Washington_Level 03/28/1999 0          18.05     
Lake_Washington_Level 03/29/1999 0          18.08     
Lake_Washington_Level 03/30/1999 0          18.08     
Lake_Washington_Level 03/31/1999 0          18.08     
Lake_Washington_Level 04/01/1999 0          18.08     
Lake_Washington_Level 04/02/1999 0          18.08     
Lake_Washington_Level 04/03/1999 0          18.08     
Lake_Washington_Level 04/04/1999 0          18.08     
Lake_Washington_Level 04/05/1999 0          18.08     
Lake_Washington_Level 04/06/1999 0          18.125    
Lake_Washington_Level 04/07/1999 0          18.17     
Lake_Washington_Level 04/08/1999 0          18.18     
Lake_Washington_Level 04/09/1999 0          18.2      
Lake_Washington_Level 04/10/1999 0          18.22     
Lake_Washington_Level 04/11/1999 0          18.23     
Lake_Washington_Level 04/12/1999 0          18.25     
Lake_Washington_Level 04/13/1999 0          18.27     
Lake_Washington_Level 04/14/1999 0          18.27     
Lake_Washington_Level 04/15/1999 0          18.29     
Lake_Washington_Level 04/16/1999 0          18.33     
Lake_Washington_Level 04/17/1999 0          18.33     
Lake_Washington_Level 04/18/1999 0          18.33     
Lake_Washington_Level 04/19/1999 0          18.34     
Lake_Washington_Level 04/20/1999 0          18.37     
Lake_Washington_Level 04/21/1999 0          18.39     
Lake_Washington_Level 04/22/1999 0          18.41     
Lake_Washington_Level 04/23/1999 0          18.45     
Lake_Washington_Level 04/24/1999 0          18.45     
Lake_Washington_Level 04/25/1999 0          18.45     
Lake_Washington_Level 04/26/1999 0          18.49     
Lake_Washington_Level 04/27/1999 0          18.53     
Lake_Washington_Level 04/28/1999 0          18.53     
Lake_Washington_Level 04/29/1999 0          18.55     
Lake_Washington_Level 04/30/1999 0          18.58     
Lake_Washington_Level 05/01/1999 0          18.59     
Lake_Washington_Level 05/02/1999 0          18.59     
Lake_Washington_Level 05/03/1999 0          18.6      
Lake_Washington_Level 05/04/1999 0          18.6      
Lake_Washington_Level 05/05/1999 0          18.6      
Lake_Washington_Level 05/06/1999 0          18.6      
Lake_Washington_Level 05/07/1999 0          18.6      
Lake_Washington_Level 05/08/1999 0          18.6      
Lake_Washington_Level 05/09/1999 0          18.6      
Lake_Washington_Level 05/10/1999 0          18.6      
Lake_Washington_Level 05/11/1999 0          18.6      
Lake_Washington_Level 05/12/1999 0          18.6      
Lake_Washington_Level 05/13/1999 0          18.6      
Lake_Washington_Level 05/14/1999 0          18.6      
Lake_Washington_Level 05/15/1999 0          18.6      
Lake_Washington_Level 05/16/1999 0          18.6      
Lake_Washington_Level 05/17/1999 0          18.6      
Lake_Washington_Level 05/18/1999 0          18.6      
Lake_Washington_Level 05/19/1999 0          18.6      
Lake_Washington_Level 05/20/1999 0          18.6      
Lake_Washington_Level 05/21/1999 0          18.6      
Lake_Washington_Level 05/22/1999 0          18.6      
Lake_Washington_Level 05/23/1999 0          18.6      
Lake_Washington_Level 05/24/1999 0          18.6      
Lake_Washington_Level 05/25/1999 0          18.6      
Lake_Washington_Level 05/26/1999 0          18.6      
Lake_Washington_Level 05/27/1999 0          18.6      
Lake_Washington_Level 05/28/1999 0          18.6      
Lake_Washington_Level 05/29/1999 0          18.6      
Lake_Washington_Level 05/30/1999 0          18.6      
Lake_Washington_Level 05/31/1999 0          18.55     
Lake_Washington_Level 06/01/1999 0          18.6      
Lake_Washington_Level 06/02/1999 0          18.6      
Lake_Washington_Level 06/03/1999 0          18.6      
Lake_Washington_Level 06/04/1999 0          18.6      
Lake_Washington_Level 06/05/1999 0          18.65     
Lake_Washington_Level 06/06/1999 0          18.65     
Lake_Washington_Level 06/07/1999 0          18.65     
Lake_Washington_Level 06/08/1999 0          18.65     
Lake_Washington_Level 06/09/1999 0          18.65     
Lake_Washington_Level 06/10/1999 0          18.7      
Lake_Washington_Level 06/11/1999 0          18.67     
Lake_Washington_Level 06/12/1999 0          18.6775   
Lake_Washington_Level 06/13/1999 0          18.685    
Lake_Washington_Level 06/14/1999 0          18.6925   
Lake_Washington_Level 06/15/1999 0          18.7      
Lake_Washington_Level 06/16/1999 0          18.705    
Lake_Washington_Level 06/17/1999 0          18.71     
Lake_Washington_Level 06/18/1999 0          18.7      
Lake_Washington_Level 06/19/1999 0          18.7      
Lake_Washington_Level 06/20/1999 0          18.67     
Lake_Washington_Level 06/21/1999 0          18.66     
Lake_Washington_Level 06/22/1999 0          18.7      
Lake_Washington_Level 06/23/1999 0          18.7      
Lake_Washington_Level 06/24/1999 0          18.74     
Lake_Washington_Level 06/25/1999 0          18.65     
Lake_Washington_Level 06/26/1999 0          18.7      
Lake_Washington_Level 06/27/1999 0          18.7      
Lake_Washington_Level 06/28/1999 0          18.7      
Lake_Washington_Level 06/29/1999 0          18.62     
Lake_Washington_Level 06/30/1999 0          18.64     
Lake_Washington_Level 07/01/1999 0          18.65     
Lake_Washington_Level 07/02/1999 0          18.65     
Lake_Washington_Level 07/03/1999 0          18.65     
Lake_Washington_Level 07/04/1999 0          18.65     
Lake_Washington_Level 07/05/1999 0          18.65     
Lake_Washington_Level 07/06/1999 0          18.65     
Lake_Washington_Level 07/07/1999 0          18.65     
Lake_Washington_Level 07/08/1999 0          18.65     
Lake_Washington_Level 07/09/1999 0          18.65     
Lake_Washington_Level 07/10/1999 0          18.65     
Lake_Washington_Level 07/11/1999 0          18.6      
Lake_Washington_Level 07/12/1999 0          18.6      
Lake_Washington_Level 07/13/1999 0          18.6      
Lake_Washington_Level 07/14/1999 0          18.58     
Lake_Washington_Level 07/15/1999 0          18.56     
Lake_Washington_Level 07/16/1999 0          18.6      
Lake_Washington_Level 07/17/1999 0          18.6      
Lake_Washington_Level 07/18/1999 0          18.6      
Lake_Washington_Level 07/19/1999 0          18.6      
Lake_Washington_Level 07/20/1999 0          18.6      
Lake_Washington_Level 07/21/1999 0          18.6      
Lake_Washington_Level 07/22/1999 0          18.575    
Lake_Washington_Level 07/23/1999 0          18.55     
Lake_Washington_Level 07/24/1999 0          18.55     
Lake_Washington_Level 07/25/1999 0          18.55     
Lake_Washington_Level 07/26/1999 0          18.55     
Lake_Washington_Level 07/27/1999 0          18.55     
Lake_Washington_Level 07/28/1999 0          18.55     
Lake_Washington_Level 07/29/1999 0          18.55     
Lake_Washington_Level 07/30/1999 0          18.55     
Lake_Washington_Level 07/31/1999 0          18.5      
Lake_Washington_Level 08/01/1999 0          18.5      
Lake_Washington_Level 08/02/1999 0          18.5      
Lake_Washington_Level 08/03/1999 0          18.45     
Lake_Washington_Level 08/04/1999 0          18.5      
Lake_Washington_Level 08/05/1999 0          18.45     
Lake_Washington_Level 08/06/1999 0          18.45     
Lake_Washington_Level 08/07/1999 0          18.45     
Lake_Washington_Level 08/08/1999 0          18.42     
Lake_Washington_Level 08/09/1999 0          18.4      
Lake_Washington_Level 08/10/1999 0          18.4      
Lake_Washington_Level 08/11/1999 0          18.4      
Lake_Washington_Level 08/12/1999 0          18.4      
Lake_Washington_Level 08/13/1999 0          18.35     
Lake_Washington_Level 08/14/1999 0          18.33     
Lake_Washington_Level 08/15/1999 0          18.3      
Lake_Washington_Level 08/16/1999 0          18.3      
Lake_Washington_Level 08/17/1999 0          18.26     
Lake_Washington_Level 08/18/1999 0          18.25     
Lake_Washington_Level 08/19/1999 0          18.23     
Lake_Washington_Level 08/20/1999 0          18.17     
Lake_Washington_Level 08/21/1999 0          18.17     
Lake_Washington_Level 08/22/1999 0          18.11     
Lake_Washington_Level 08/23/1999 0          18.1      
Lake_Washington_Level 08/24/1999 0          18.07     
Lake_Washington_Level 08/25/1999 0          18.03     
Lake_Washington_Level 08/26/1999 0          18        
Lake_Washington_Level 08/27/1999 0          17.97     
Lake_Washington_Level 08/28/1999 0          17.92     
Lake_Washington_Level 08/29/1999 0          17.92     
Lake_Washington_Level 08/30/1999 0          17.9      
Lake_Washington_Level 08/31/1999 0          17.9      
Lake_Washington_Level 09/01/1999 0          17.85     
Lake_Washington_Level 09/02/1999 0          17.79     
Lake_Washington_Level 09/03/1999 0          17.75     
Lake_Washington_Level 09/04/1999 0          17.74     
Lake_Washington_Level 09/05/1999 0          17.73     
Lake_Washington_Level 09/06/1999 0          17.73     
Lake_Washington_Level 09/07/1999 0          17.73     
Lake_Washington_Level 09/08/1999 0          17.7      
Lake_Washington_Level 09/09/1999 0          17.68     
Lake_Washington_Level 09/10/1999 0          17.67     
Lake_Washington_Level 09/11/1999 0          17.67     
Lake_Washington_Level 09/12/1999 0          17.65     
Lake_Washington_Level 09/13/1999 0          17.64     
Lake_Washington_Level 09/14/1999 0          17.62     
Lake_Washington_Level 09/15/1999 0          17.61     
Lake_Washington_Level 09/16/1999 0          17.61     
Lake_Washington_Level 09/17/1999 0          17.61     
Lake_Washington_Level 09/18/1999 0          17.6      
Lake_Washington_Level 09/19/1999 0          17.6      
Lake_Washington_Level 09/20/1999 0          17.56     
Lake_Washington_Level 09/21/1999 0          17.55     
Lake_Washington_Level 09/22/1999 0          17.55     
Lake_Washington_Level 09/23/1999 0          17.54     
Lake_Washington_Level 09/24/1999 0          17.57     
Lake_Washington_Level 09/25/1999 0          17.55     
Lake_Washington_Level 09/26/1999 0          17.55     
Lake_Washington_Level 09/27/1999 0          17.55     
Lake_Washington_Level 09/28/1999 0          17.52     
Lake_Washington_Level 09/29/1999 0          17.51     
Lake_Washington_Level 09/30/1999 0          17.5      
Lake_Washington_Level 10/01/1999 0          17.55     
Lake_Washington_Level 10/02/1999 0          17.5      
Lake_Washington_Level 10/03/1999 0          17.5      
Lake_Washington_Level 10/04/1999 0          17.5      
Lake_Washington_Level 10/05/1999 0          17.47     
Lake_Washington_Level 10/06/1999 0          17.49     
Lake_Washington_Level 10/07/1999 0          17.48     
Lake_Washington_Level 10/08/1999 0          17.55     
Lake_Washington_Level 10/09/1999 0          17.55     
Lake_Washington_Level 10/10/1999 0          17.5      
Lake_Washington_Level 10/11/1999 0          17.5      
Lake_Washington_Level 10/12/1999 0          17.53     
Lake_Washington_Level 10/13/1999 0          17.47     
Lake_Washington_Level 10/14/1999 0          17.45     
Lake_Washington_Level 10/15/1999 0          17.45     
Lake_Washington_Level 10/16/1999 0          17.45     
Lake_Washington_Level 10/17/1999 0          17.44     
Lake_Washington_Level 10/18/1999 0          17.38     
Lake_Washington_Level 10/19/1999 0          17.38     
Lake_Washington_Level 10/20/1999 0          17.37     
Lake_Washington_Level 10/21/1999 0          17.36     
Lake_Washington_Level 10/22/1999 0          17.34     
Lake_Washington_Level 10/23/1999 0          17.325    
Lake_Washington_Level 10/24/1999 0          17.31     
Lake_Washington_Level 10/25/1999 0          17.295    
Lake_Washington_Level 10/26/1999 0          17.28     
Lake_Washington_Level 10/27/1999 0          17.26     
Lake_Washington_Level 10/28/1999 0          17.25     
Lake_Washington_Level 10/29/1999 0          17.23     
Lake_Washington_Level 10/30/1999 0          17.23     
Lake_Washington_Level 10/31/1999 0          17.21     
Lake_Washington_Level 11/01/1999 0          17.19     
Lake_Washington_Level 11/02/1999 0          17.15     
Lake_Washington_Level 11/03/1999 0          17.16     
Lake_Washington_Level 11/04/1999 0          17.15     
Lake_Washington_Level 11/05/1999 0          17.13     
Lake_Washington_Level 11/06/1999 0          17.11     
Lake_Washington_Level 11/07/1999 0          17.1      
Lake_Washington_Level 11/08/1999 0          17.09     
Lake_Washington_Level 11/09/1999 0          17.07     
Lake_Washington_Level 11/10/1999 0          17.06     
Lake_Washington_Level 11/11/1999 0          17.04     
Lake_Washington_Level 11/12/1999 0          17.05     
Lake_Washington_Level 11/13/1999 0          17.01     
Lake_Washington_Level 11/14/1999 0          17        
Lake_Washington_Level 11/15/1999 0          16.98     
Lake_Washington_Level 11/16/1999 0          16.97     
Lake_Washington_Level 11/17/1999 0          16.95     
Lake_Washington_Level 11/18/1999 0          16.94     
Lake_Washington_Level 11/19/1999 0          16.92     
Lake_Washington_Level 11/20/1999 0          16.89     
Lake_Washington_Level 11/21/1999 0          16.89     
Lake_Washington_Level 11/22/1999 0          16.88     
Lake_Washington_Level 11/23/1999 0          16.86     
Lake_Washington_Level 11/24/1999 0          16.85     
Lake_Washington_Level 11/25/1999 0          16.84     
Lake_Washington_Level 11/26/1999 0          16.82     
Lake_Washington_Level 11/27/1999 0          16.8      
Lake_Washington_Level 11/28/1999 0          16.79     
Lake_Washington_Level 11/29/1999 0          16.78     
Lake_Washington_Level 11/30/1999 0          16.76     
Lake_Washington_Level 12/01/1999 0          16.75     
Lake_Washington_Level 12/02/1999 0          16.75     
Lake_Washington_Level 12/03/1999 0          16.75     
Lake_Washington_Level 12/04/1999 0          16.75     
Lake_Washington_Level 12/05/1999 0          16.75     
Lake_Washington_Level 12/06/1999 0          16.75     
Lake_Washington_Level 12/07/1999 0          16.75     
Lake_Washington_Level 12/08/1999 0          16.75     
Lake_Washington_Level 12/09/1999 0          16.75     
Lake_Washington_Level 12/10/1999 0          16.75     
Lake_Washington_Level 12/11/1999 0          16.75     
Lake_Washington_Level 12/12/1999 0          16.75     
Lake_Washington_Level 12/13/1999 0          16.75     
Lake_Washington_Level 12/14/1999 0          16.75     
Lake_Washington_Level 12/15/1999 0          16.75     
Lake_Washington_Level 12/16/1999 0          16.75     
Lake_Washington_Level 12/17/1999 0          16.75     
Lake_Washington_Level 12/18/1999 0          16.75     
Lake_Washington_Level 12/19/1999 0          16.75     
Lake_Washington_Level 12/20/1999 0          16.75     
Lake_Washington_Level 12/21/1999 0          16.75     
Lake_Washington_Level 12/22/1999 0          16.75     
Lake_Washington_Level 12/23/1999 0          16.75     
Lake_Washington_Level 12/24/1999 0          16.75     
Lake_Washington_Level 12/25/1999 0          16.75     
Lake_Washington_Level 12/26/1999 0          16.75     
Lake_Washington_Level 12/27/1999 0          16.75     
Lake_Washington_Level 12/28/1999 0          16.75     
Lake_Washington_Level 12/29/1999 0          16.75     
Lake_Washington_Level 12/30/1999 0          16.75     
Lake_Washington_Level 12/31/1999 0          16.75     
Lake_Washington_Level 01/01/2000 0          16.75     
Lake_Washington_Level 01/02/2000 0          16.75     
Lake_Washington_Level 01/03/2000 0          16.75     
Lake_Washington_Level 01/04/2000 0          16.75     
Lake_Washington_Level 01/05/2000 0          16.75     
Lake_Washington_Level 01/06/2000 0          16.75     
Lake_Washington_Level 01/07/2000 0          16.75     
Lake_Washington_Level 01/08/2000 0          16.75     
Lake_Washington_Level 01/09/2000 0          16.75     
Lake_Washington_Level 01/10/2000 0          16.75     
Lake_Washington_Level 01/11/2000 0          16.75     
Lake_Washington_Level 01/12/2000 0          16.75     
Lake_Washington_Level 01/13/2000 0          16.75     
Lake_Washington_Level 01/14/2000 0          16.75     
Lake_Washington_Level 01/15/2000 0          16.75     
Lake_Washington_Level 01/16/2000 0          16.75     
Lake_Washington_Level 01/17/2000 0          16.75     
Lake_Washington_Level 01/18/2000 0          16.75     
Lake_Washington_Level 01/19/2000 0          16.75     
Lake_Washington_Level 01/20/2000 0          16.75     
Lake_Washington_Level 01/21/2000 0          16.75     
Lake_Washington_Level 01/22/2000 0          16.75     
Lake_Washington_Level 01/23/2000 0          16.75     
Lake_Washington_Level 01/24/2000 0          16.75     
Lake_Washington_Level 01/25/2000 0          16.75     
Lake_Washington_Level 01/26/2000 0          16.72     
Lake_Washington_Level 01/27/2000 0          16.75     
Lake_Washington_Level 01/28/2000 0          16.75     
Lake_Washington_Level 01/29/2000 0          16.75     
Lake_Washington_Level 01/30/2000 0          16.75     
Lake_Washington_Level 01/31/2000 0          16.75     
Lake_Washington_Level 02/01/2000 0          16.75     
Lake_Washington_Level 02/02/2000 0          16.75     
Lake_Washington_Level 02/03/2000 0          16.75     
Lake_Washington_Level 02/04/2000 0          16.75     
Lake_Washington_Level 02/05/2000 0          16.75     
Lake_Washington_Level 02/06/2000 0          16.75     
Lake_Washington_Level 02/07/2000 0          16.75     
Lake_Washington_Level 02/08/2000 0          16.75     
Lake_Washington_Level 02/09/2000 0          16.75     
Lake_Washington_Level 02/10/2000 0          16.75     
Lake_Washington_Level 02/11/2000 0          16.75     
Lake_Washington_Level 02/12/2000 0          16.75     
Lake_Washington_Level 02/13/2000 0          16.75     
Lake_Washington_Level 02/14/2000 0          16.75     
Lake_Washington_Level 02/15/2000 0          16.75     
Lake_Washington_Level 02/16/2000 0          16.8      
Lake_Washington_Level 02/17/2000 0          16.87     
Lake_Washington_Level 02/18/2000 0          16.94     
Lake_Washington_Level 02/19/2000 0          17.01     
Lake_Washington_Level 02/20/2000 0          17.09     
Lake_Washington_Level 02/21/2000 0          17.15     
Lake_Washington_Level 02/22/2000 0          17.22     
Lake_Washington_Level 02/23/2000 0          17.25     
Lake_Washington_Level 02/24/2000 0          17.28     
Lake_Washington_Level 02/25/2000 0          17.3      
Lake_Washington_Level 02/26/2000 0          17.32     
Lake_Washington_Level 02/27/2000 0          17.34     
Lake_Washington_Level 02/28/2000 0          17.4      
Lake_Washington_Level 02/29/2000 0          17.38     
Lake_Washington_Level 03/01/2000 0          17.39     
Lake_Washington_Level 03/02/2000 0          17.42     
Lake_Washington_Level 03/03/2000 0          17.47     
Lake_Washington_Level 03/04/2000 0          17.49     
Lake_Washington_Level 03/05/2000 0          17.51     
Lake_Washington_Level 03/06/2000 0          17.57     
Lake_Washington_Level 03/07/2000 0          17.56     
Lake_Washington_Level 03/08/2000 0          17.59     
Lake_Washington_Level 03/09/2000 0          17.61     
Lake_Washington_Level 03/10/2000 0          17.64     
Lake_Washington_Level 03/11/2000 0          17.665    
Lake_Washington_Level 03/12/2000 0          17.69     
Lake_Washington_Level 03/13/2000 0          17.71     
Lake_Washington_Level 03/14/2000 0          17.73     
Lake_Washington_Level 03/15/2000 0          17.75     
Lake_Washington_Level 03/16/2000 0          17.78     
Lake_Washington_Level 03/17/2000 0          17.81     
Lake_Washington_Level 03/18/2000 0          17.83     
Lake_Washington_Level 03/19/2000 0          17.86     
Lake_Washington_Level 03/20/2000 0          17.88     
Lake_Washington_Level 03/21/2000 0          17.91     
Lake_Washington_Level 03/22/2000 0          17.93     
Lake_Washington_Level 03/23/2000 0          17.95     
Lake_Washington_Level 03/24/2000 0          17.98     
Lake_Washington_Level 03/25/2000 0          18        
Lake_Washington_Level 03/26/2000 0          18.03     
Lake_Washington_Level 03/27/2000 0          18.05     
Lake_Washington_Level 03/28/2000 0          18.08     
Lake_Washington_Level 03/29/2000 0          18.1      
Lake_Washington_Level 03/30/2000 0          18.13     
Lake_Washington_Level 03/31/2000 0          18.15     
Lake_Washington_Level 04/01/2000 0          18.17     
Lake_Washington_Level 04/02/2000 0          18.18     
Lake_Washington_Level 04/03/2000 0          18.2      
Lake_Washington_Level 04/04/2000 0          18.21     
Lake_Washington_Level 04/05/2000 0          18.23     
Lake_Washington_Level 04/06/2000 0          18.24     
Lake_Washington_Level 04/07/2000 0          18.26     
Lake_Washington_Level 04/08/2000 0          18.27     
Lake_Washington_Level 04/09/2000 0          18.29     
Lake_Washington_Level 04/10/2000 0          18.3      
Lake_Washington_Level 04/11/2000 0          18.32     
Lake_Washington_Level 04/12/2000 0          18.33     
Lake_Washington_Level 04/13/2000 0          18.35     
Lake_Washington_Level 04/14/2000 0          18.36     
Lake_Washington_Level 04/15/2000 0          18.38     
Lake_Washington_Level 04/16/2000 0          18.39     
Lake_Washington_Level 04/17/2000 0          18.41     
Lake_Washington_Level 04/18/2000 0          18.43     
Lake_Washington_Level 04/19/2000 0          18.44     
Lake_Washington_Level 04/20/2000 0          18.45     
Lake_Washington_Level 04/21/2000 0          18.47     
Lake_Washington_Level 04/22/2000 0          18.48     
Lake_Washington_Level 04/23/2000 0          18.5      
Lake_Washington_Level 04/24/2000 0          18.51     
Lake_Washington_Level 04/25/2000 0          18.53     
Lake_Washington_Level 04/26/2000 0          18.54     
Lake_Washington_Level 04/27/2000 0          18.56     
Lake_Washington_Level 04/28/2000 0          18.57     
Lake_Washington_Level 04/29/2000 0          18.59     
Lake_Washington_Level 04/30/2000 0          18.6      
Lake_Washington_Level 05/01/2000 0          18.6      
Lake_Washington_Level 05/02/2000 0          18.6      
Lake_Washington_Level 05/03/2000 0          18.6      
Lake_Washington_Level 05/04/2000 0          18.6      
Lake_Washington_Level 05/05/2000 0          18.6      
Lake_Washington_Level 05/06/2000 0          18.6      
Lake_Washington_Level 05/07/2000 0          18.6      
Lake_Washington_Level 05/08/2000 0          18.6      
Lake_Washington_Level 05/09/2000 0          18.6      
Lake_Washington_Level 05/10/2000 0          18.6      
Lake_Washington_Level 05/11/2000 0          18.6      
Lake_Washington_Level 05/12/2000 0          18.6      
Lake_Washington_Level 05/13/2000 0          18.6      
Lake_Washington_Level 05/14/2000 0          18.6      
Lake_Washington_Level 05/15/2000 0          18.6      
Lake_Washington_Level 05/16/2000 0          18.6      
Lake_Washington_Level 05/17/2000 0          18.6      
Lake_Washington_Level 05/18/2000 0          18.6      
Lake_Washington_Level 05/19/2000 0          18.6      
Lake_Washington_Level 05/20/2000 0          18.6      
Lake_Washington_Level 05/21/2000 0          18.6      
Lake_Washington_Level 05/22/2000 0          18.6      
Lake_Washington_Level 05/23/2000 0          18.6      
Lake_Washington_Level 05/24/2000 0          18.6      
Lake_Washington_Level 05/25/2000 0          18.6      
Lake_Washington_Level 05/26/2000 0          18.6      
Lake_Washington_Level 05/27/2000 0          18.6      
Lake_Washington_Level 05/28/2000 0          18.6      
Lake_Washington_Level 05/29/2000 0          18.6      
Lake_Washington_Level 05/30/2000 0          18.6      
Lake_Washington_Level 05/31/2000 0          18.6      
Lake_Washington_Level 06/01/2000 0          18.6      
Lake_Washington_Level 06/02/2000 0          18.6      
Lake_Washington_Level 06/03/2000 0          18.6      
Lake_Washington_Level 06/04/2000 0          18.6      
Lake_Washington_Level 06/05/2000 0          18.6      
Lake_Washington_Level 06/06/2000 0          18.6      
Lake_Washington_Level 06/07/2000 0          18.6      
Lake_Washington_Level 06/08/2000 0          18.6      
Lake_Washington_Level 06/09/2000 0          18.6      
Lake_Washington_Level 06/10/2000 0          18.6      
Lake_Washington_Level 06/11/2000 0          18.6      
Lake_Washington_Level 06/12/2000 0          18.65     
Lake_Washington_Level 06/13/2000 0          18.55     
Lake_Washington_Level 06/14/2000 0          18.55     
Lake_Washington_Level 06/15/2000 0          18.65     
Lake_Washington_Level 06/16/2000 0          18.65     
Lake_Washington_Level 06/17/2000 0          18.65     
Lake_Washington_Level 06/18/2000 0          18.65     
Lake_Washington_Level 06/19/2000 0          18.65     
Lake_Washington_Level 06/20/2000 0          18.65     
Lake_Washington_Level 06/21/2000 0          18.65     
Lake_Washington_Level 06/22/2000 0          18.6      
Lake_Washington_Level 06/23/2000 0          18.55     
Lake_Washington_Level 06/24/2000 0          18.55     
Lake_Washington_Level 06/25/2000 0          18.55     
Lake_Washington_Level 06/26/2000 0          18.5      
Lake_Washington_Level 06/27/2000 0          18.45     
Lake_Washington_Level 06/28/2000 0          18.45     
Lake_Washington_Level 06/29/2000 0          18.43     
Lake_Washington_Level 06/30/2000 0          18.45     
Lake_Washington_Level 07/01/2000 0          18.45     
Lake_Washington_Level 07/02/2000 0          18.45     
Lake_Washington_Level 07/03/2000 0          18.41     
Lake_Washington_Level 07/04/2000 0          18.45     
Lake_Washington_Level 07/05/2000 0          18.45     
Lake_Washington_Level 07/06/2000 0          18.45     
Lake_Washington_Level 07/07/2000 0          18.48     
Lake_Washington_Level 07/08/2000 0          18.45     
Lake_Washington_Level 07/09/2000 0          18.45     
Lake_Washington_Level 07/10/2000 0          18.45     
Lake_Washington_Level 07/11/2000 0          18.45     
Lake_Washington_Level 07/12/2000 0          18.45     
Lake_Washington_Level 07/13/2000 0          18.45     
Lake_Washington_Level 07/14/2000 0          18.45     
Lake_Washington_Level 07/15/2000 0          18.45     
Lake_Washington_Level 07/16/2000 0          18.45     
Lake_Washington_Level 07/17/2000 0          18.41     
Lake_Washington_Level 07/18/2000 0          18.45     
Lake_Washington_Level 07/19/2000 0          18.41     
Lake_Washington_Level 07/20/2000 0          18.41     
Lake_Washington_Level 07/21/2000 0          18.38     
Lake_Washington_Level 07/22/2000 0          18.38     
Lake_Washington_Level 07/23/2000 0          18.4      
Lake_Washington_Level 07/24/2000 0          18.4      
Lake_Washington_Level 07/25/2000 0          18.41     
Lake_Washington_Level 07/26/2000 0          18.37     
Lake_Washington_Level 07/27/2000 0          18.36     
Lake_Washington_Level 07/28/2000 0          18.34     
Lake_Washington_Level 07/29/2000 0          18.35     
Lake_Washington_Level 07/30/2000 0          18.35     
Lake_Washington_Level 07/31/2000 0          18.35     
Lake_Washington_Level 08/01/2000 0          18.32     
Lake_Washington_Level 08/02/2000 0          18.3      
Lake_Washington_Level 08/03/2000 0          18.3      
Lake_Washington_Level 08/04/2000 0          18.275    
Lake_Washington_Level 08/05/2000 0          18.25     
Lake_Washington_Level 08/06/2000 0          18.22     
Lake_Washington_Level 08/07/2000 0          18.2      
Lake_Washington_Level 08/08/2000 0          18.17     
Lake_Washington_Level 08/09/2000 0          18.15     
Lake_Washington_Level 08/10/2000 0          18.15     
Lake_Washington_Level 08/11/2000 0          18.1      
Lake_Washington_Level 08/12/2000 0          18.1      
Lake_Washington_Level 08/13/2000 0          18.08     
Lake_Washington_Level 08/14/2000 0          18.06     
Lake_Washington_Level 08/15/2000 0          18.03     
Lake_Washington_Level 08/16/2000 0          18        
Lake_Washington_Level 08/17/2000 0          18        
Lake_Washington_Level 08/18/2000 0          17.98     
Lake_Washington_Level 08/19/2000 0          17.97     
Lake_Washington_Level 08/20/2000 0          17.95     
Lake_Washington_Level 08/21/2000 0          17.95     
Lake_Washington_Level 08/22/2000 0          17.92     
Lake_Washington_Level 08/23/2000 0          17.91     
Lake_Washington_Level 08/24/2000 0          17.9      
Lake_Washington_Level 08/25/2000 0          17.86     
Lake_Washington_Level 08/26/2000 0          17.86     
Lake_Washington_Level 08/27/2000 0          17.85     
Lake_Washington_Level 08/28/2000 0          17.81     
Lake_Washington_Level 08/29/2000 0          17.8      
Lake_Washington_Level 08/30/2000 0          17.78     
Lake_Washington_Level 08/31/2000 0          17.77     
Lake_Washington_Level 09/01/2000 0          17.76     
Lake_Washington_Level 09/02/2000 0          17.75     
Lake_Washington_Level 09/03/2000 0          17.71     
Lake_Washington_Level 09/04/2000 0          17.72     
Lake_Washington_Level 09/05/2000 0          17.7      
Lake_Washington_Level 09/06/2000 0          17.7      
Lake_Washington_Level 09/07/2000 0          17.67     
Lake_Washington_Level 09/08/2000 0          17.65     
Lake_Washington_Level 09/09/2000 0          17.65     
Lake_Washington_Level 09/10/2000 0          17.65     
Lake_Washington_Level 09/11/2000 0          17.69     
Lake_Washington_Level 09/12/2000 0          17.7      
Lake_Washington_Level 09/13/2000 0          17.73     
Lake_Washington_Level 09/14/2000 0          17.71     
Lake_Washington_Level 09/15/2000 0          17.72     
Lake_Washington_Level 09/16/2000 0          17.71     
Lake_Washington_Level 09/17/2000 0          17.7      
Lake_Washington_Level 09/18/2000 0          17.7      
Lake_Washington_Level 09/19/2000 0          17.69     
Lake_Washington_Level 09/20/2000 0          17.71     
Lake_Washington_Level 09/21/2000 0          17.69     
Lake_Washington_Level 09/22/2000 0          17.67     
Lake_Washington_Level 09/23/2000 0          17.67     
Lake_Washington_Level 09/24/2000 0          17.65     
Lake_Washington_Level 09/25/2000 0          17.66     
Lake_Washington_Level 09/26/2000 0          17.63     
Lake_Washington_Level 09/27/2000 0          17.63     
Lake_Washington_Level 09/28/2000 0          17.63     
Lake_Washington_Level 09/29/2000 0          17.61     
Lake_Washington_Level 09/30/2000 0          17.65     
Lake_Washington_Level 10/01/2000 0          17.7      
Lake_Washington_Level 10/02/2000 0          17.63     
Lake_Washington_Level 10/03/2000 0          17.62     
Lake_Washington_Level 10/04/2000 0          17.58     
Lake_Washington_Level 10/05/2000 0          17.56     
Lake_Washington_Level 10/06/2000 0          17.54     
Lake_Washington_Level 10/07/2000 0          17.53     
Lake_Washington_Level 10/08/2000 0          17.52     
Lake_Washington_Level 10/09/2000 0          17.51     
Lake_Washington_Level 10/10/2000 0          17.51     
Lake_Washington_Level 10/11/2000 0          17.47     
Lake_Washington_Level 10/12/2000 0          17.49     
Lake_Washington_Level 10/13/2000 0          17.47     
Lake_Washington_Level 10/14/2000 0          17.45     
Lake_Washington_Level 10/15/2000 0          17.44     
Lake_Washington_Level 10/16/2000 0          17.43     
Lake_Washington_Level 10/17/2000 0          17.41     
Lake_Washington_Level 10/18/2000 0          17.4      
Lake_Washington_Level 10/19/2000 0          17.38     
Lake_Washington_Level 10/20/2000 0          17.37     
Lake_Washington_Level 10/21/2000 0          17.35     
Lake_Washington_Level 10/22/2000 0          17.34     
Lake_Washington_Level 10/23/2000 0          17.33     
Lake_Washington_Level 10/24/2000 0          17.31     
Lake_Washington_Level 10/25/2000 0          17.3      
Lake_Washington_Level 10/26/2000 0          17.28     
Lake_Washington_Level 10/27/2000 0          17.26     
Lake_Washington_Level 10/28/2000 0          17.25     
Lake_Washington_Level 10/29/2000 0          17.23     
Lake_Washington_Level 10/30/2000 0          17.22     
Lake_Washington_Level 10/31/2000 0          17.21     
Lake_Washington_Level 11/01/2000 0          17.19     
Lake_Washington_Level 11/02/2000 0          17.18     
Lake_Washington_Level 11/03/2000 0          17.16     
Lake_Washington_Level 11/04/2000 0          17.14     
Lake_Washington_Level 11/05/2000 0          17.13     
Lake_Washington_Level 11/06/2000 0          17.12     
Lake_Washington_Level 11/07/2000 0          17.1      
Lake_Washington_Level 11/08/2000 0          17.09     
Lake_Washington_Level 11/09/2000 0          17.08     
Lake_Washington_Level 11/10/2000 0          17.06     
Lake_Washington_Level 11/11/2000 0          17.05     
Lake_Washington_Level 11/12/2000 0          17.03     
Lake_Washington_Level 11/13/2000 0          17.02     
Lake_Washington_Level 11/14/2000 0          17        
Lake_Washington_Level 11/15/2000 0          16.99     
Lake_Washington_Level 11/16/2000 0          16.97     
Lake_Washington_Level 11/17/2000 0          16.95     
Lake_Washington_Level 11/18/2000 0          16.94     
Lake_Washington_Level 11/19/2000 0          16.93     
Lake_Washington_Level 11/20/2000 0          16.91     
Lake_Washington_Level 11/21/2000 0          16.9      
Lake_Washington_Level 11/22/2000 0          16.88     
Lake_Washington_Level 11/23/2000 0          16.87     
Lake_Washington_Level 11/24/2000 0          16.85     
Lake_Washington_Level 11/25/2000 0          16.83     
Lake_Washington_Level 11/26/2000 0          16.82     
Lake_Washington_Level 11/27/2000 0          16.81     
Lake_Washington_Level 11/28/2000 0          16.79     
Lake_Washington_Level 11/29/2000 0          16.78     
Lake_Washington_Level 11/30/2000 0          16.77     
Lake_Washington_Level 12/01/2000 0          16.75     
Lake_Washington_Level 12/02/2000 0          16.75     
Lake_Washington_Level 12/03/2000 0          16.75     
Lake_Washington_Level 12/04/2000 0          16.75     
Lake_Washington_Level 12/05/2000 0          16.75     
Lake_Washington_Level 12/06/2000 0          16.75     
Lake_Washington_Level 12/07/2000 0          16.75     
Lake_Washington_Level 12/08/2000 0          16.75     
Lake_Washington_Level 12/09/2000 0          16.75     
Lake_Washington_Level 12/10/2000 0          16.75     
Lake_Washington_Level 12/11/2000 0          16.75     
Lake_Washington_Level 12/12/2000 0          16.75     
Lake_Washington_Level 12/13/2000 0          16.75     
Lake_Washington_Level 12/14/2000 0          16.75     
Lake_Washington_Level 12/15/2000 0          16.75     
Lake_Washington_Level 12/16/2000 0          16.75     
Lake_Washington_Level 12/17/2000 0          16.75     
Lake_Washington_Level 12/18/2000 0          16.75     
Lake_Washington_Level 12/19/2000 0          16.75     
Lake_Washington_Level 12/20/2000 0          16.75     
Lake_Washington_Level 12/21/2000 0          16.75     
Lake_Washington_Level 12/22/2000 0          16.75     
Lake_Washington_Level 12/23/2000 0          16.75     
Lake_Washington_Level 12/24/2000 0          16.75     
Lake_Washington_Level 12/25/2000 0          16.75     
Lake_Washington_Level 12/26/2000 0          16.75     
Lake_Washington_Level 12/27/2000 0          16.75     
Lake_Washington_Level 12/28/2000 0          16.75     
Lake_Washington_Level 12/29/2000 0          16.75     
Lake_Washington_Level 12/30/2000 0          16.75     
Lake_Washington_Level 12/31/2000 0          16.75     
Lake_Washington_Level 01/01/2001 0          16.75     
Lake_Washington_Level 01/02/2001 0          16.75     
Lake_Washington_Level 01/03/2001 0          16.75     
Lake_Washington_Level 01/04/2001 0          16.75     
Lake_Washington_Level 01/05/2001 0          16.75     
Lake_Washington_Level 01/06/2001 0          16.75     
Lake_Washington_Level 01/07/2001 0          16.75     
Lake_Washington_Level 01/08/2001 0          16.75     
Lake_Washington_Level 01/09/2001 0          16.75     
Lake_Washington_Level 01/10/2001 0          16.75     
Lake_Washington_Level 01/11/2001 0          16.75     
Lake_Washington_Level 01/12/2001 0          16.75     
Lake_Washington_Level 01/13/2001 0          16.75     
Lake_Washington_Level 01/14/2001 0          16.75     
Lake_Washington_Level 01/15/2001 0          16.75     
Lake_Washington_Level 01/16/2001 0          16.75     
Lake_Washington_Level 01/17/2001 0          16.75     
Lake_Washington_Level 01/18/2001 0          16.75     
Lake_Washington_Level 01/19/2001 0          16.75     
Lake_Washington_Level 01/20/2001 0          16.75     
Lake_Washington_Level 01/21/2001 0          16.75     
Lake_Washington_Level 01/22/2001 0          16.75     
Lake_Washington_Level 01/23/2001 0          16.75     
Lake_Washington_Level 01/24/2001 0          16.75     
Lake_Washington_Level 01/25/2001 0          16.75     
Lake_Washington_Level 01/26/2001 0          16.75     
Lake_Washington_Level 01/27/2001 0          16.75     
Lake_Washington_Level 01/28/2001 0          16.75     
Lake_Washington_Level 01/29/2001 0          16.75     
Lake_Washington_Level 01/30/2001 0          16.75     
Lake_Washington_Level 01/31/2001 0          16.75     
Lake_Washington_Level 02/01/2001 0          16.75     
Lake_Washington_Level 02/02/2001 0          16.75     
Lake_Washington_Level 02/03/2001 0          16.75     
Lake_Washington_Level 02/04/2001 0          16.75     
Lake_Washington_Level 02/05/2001 0          16.78     
Lake_Washington_Level 02/06/2001 0          16.75     
Lake_Washington_Level 02/07/2001 0          16.81     
Lake_Washington_Level 02/08/2001 0          16.85     
Lake_Washington_Level 02/09/2001 0          16.91     
Lake_Washington_Level 02/10/2001 0          16.95     
Lake_Washington_Level 02/11/2001 0          16.96     
Lake_Washington_Level 02/12/2001 0          17.02     
Lake_Washington_Level 02/13/2001 0          17.05     
Lake_Washington_Level 02/14/2001 0          17.07     
Lake_Washington_Level 02/15/2001 0          17.07     
Lake_Washington_Level 02/16/2001 0          17.18     
Lake_Washington_Level 02/17/2001 0          17.26     
Lake_Washington_Level 02/18/2001 0          17.37     
Lake_Washington_Level 02/19/2001 0          17.43     
Lake_Washington_Level 02/20/2001 0          17.45     
Lake_Washington_Level 02/21/2001 0          17.48     
Lake_Washington_Level 02/22/2001 0          17.53     
Lake_Washington_Level 02/23/2001 0          17.55     
Lake_Washington_Level 02/24/2001 0          17.55     
Lake_Washington_Level 02/25/2001 0          17.55     
Lake_Washington_Level 02/26/2001 0          17.6      
Lake_Washington_Level 02/27/2001 0          17.6      
Lake_Washington_Level 02/28/2001 0          17.62     
Lake_Washington_Level 03/01/2001 0          17.62     
Lake_Washington_Level 03/02/2001 0          17.64     
Lake_Washington_Level 03/03/2001 0          17.67     
Lake_Washington_Level 03/04/2001 0          17.67     
Lake_Washington_Level 03/05/2001 0          17.67     
Lake_Washington_Level 03/06/2001 0          17.71     
Lake_Washington_Level 03/07/2001 0          17.72     
Lake_Washington_Level 03/08/2001 0          17.74     
Lake_Washington_Level 03/09/2001 0          17.79     
Lake_Washington_Level 03/10/2001 0          17.81     
Lake_Washington_Level 03/11/2001 0          17.84     
Lake_Washington_Level 03/12/2001 0          17.86     
Lake_Washington_Level 03/13/2001 0          17.89     
Lake_Washington_Level 03/14/2001 0          17.91     
Lake_Washington_Level 03/15/2001 0          17.93     
Lake_Washington_Level 03/16/2001 0          17.96     
Lake_Washington_Level 03/17/2001 0          17.98     
Lake_Washington_Level 03/18/2001 0          18.01     
Lake_Washington_Level 03/19/2001 0          18.03     
Lake_Washington_Level 03/20/2001 0          18.06     
Lake_Washington_Level 03/21/2001 0          18.08     
Lake_Washington_Level 03/22/2001 0          18.1      
Lake_Washington_Level 03/23/2001 0          18.13     
Lake_Washington_Level 03/24/2001 0          18.15     
Lake_Washington_Level 03/25/2001 0          18.18     
Lake_Washington_Level 03/26/2001 0          18.2      
Lake_Washington_Level 03/27/2001 0          18.23     
Lake_Washington_Level 03/28/2001 0          18.25     
Lake_Washington_Level 03/29/2001 0          18.28     
Lake_Washington_Level 03/30/2001 0          18.3      
Lake_Washington_Level 03/31/2001 0          18.33     
Lake_Washington_Level 04/01/2001 0          18.36     
Lake_Washington_Level 04/02/2001 0          18.36     
Lake_Washington_Level 04/03/2001 0          18.37     
Lake_Washington_Level 04/04/2001 0          18.38     
Lake_Washington_Level 04/05/2001 0          18.38     
Lake_Washington_Level 04/06/2001 0          18.39     
Lake_Washington_Level 04/07/2001 0          18.4      
Lake_Washington_Level 04/08/2001 0          18.41     
Lake_Washington_Level 04/09/2001 0          18.42     
Lake_Washington_Level 04/10/2001 0          18.43     
Lake_Washington_Level 04/11/2001 0          18.43     
Lake_Washington_Level 04/12/2001 0          18.44     
Lake_Washington_Level 04/13/2001 0          18.45     
Lake_Washington_Level 04/14/2001 0          18.46     
Lake_Washington_Level 04/15/2001 0          18.47     
Lake_Washington_Level 04/16/2001 0          18.48     
Lake_Washington_Level 04/17/2001 0          18.48     
Lake_Washington_Level 04/18/2001 0          18.49     
Lake_Washington_Level 04/19/2001 0          18.5      
Lake_Washington_Level 04/20/2001 0          18.47     
Lake_Washington_Level 04/21/2001 0          18.49     
Lake_Washington_Level 04/22/2001 0          18.49     
Lake_Washington_Level 04/23/2001 0          18.53     
Lake_Washington_Level 04/24/2001 0          18.54     
Lake_Washington_Level 04/25/2001 0          18.49     
Lake_Washington_Level 04/26/2001 0          18.49     
Lake_Washington_Level 04/27/2001 0          18.49     
Lake_Washington_Level 04/28/2001 0          18.52     
Lake_Washington_Level 04/29/2001 0          18.53     
Lake_Washington_Level 04/30/2001 0          18.55     
Lake_Washington_Level 05/01/2001 0          18.63     
Lake_Washington_Level 05/02/2001 0          18.65     
Lake_Washington_Level 05/03/2001 0          18.65     
Lake_Washington_Level 05/04/2001 0          18.65     
Lake_Washington_Level 05/05/2001 0          18.69     
Lake_Washington_Level 05/06/2001 0          18.7      
Lake_Washington_Level 05/07/2001 0          18.7      
Lake_Washington_Level 05/08/2001 0          18.7      
Lake_Washington_Level 05/09/2001 0          18.7      
Lake_Washington_Level 05/10/2001 0          18.65     
Lake_Washington_Level 05/11/2001 0          18.65     
Lake_Washington_Level 05/12/2001 0          18.64     
Lake_Washington_Level 05/13/2001 0          18.65     
Lake_Washington_Level 05/14/2001 0          18.65     
Lake_Washington_Level 05/15/2001 0          18.7      
Lake_Washington_Level 05/16/2001 0          18.65     
Lake_Washington_Level 05/17/2001 0          18.65     
Lake_Washington_Level 05/18/2001 0          18.7      
Lake_Washington_Level 05/19/2001 0          18.7      
Lake_Washington_Level 05/20/2001 0          18.7      
Lake_Washington_Level 05/21/2001 0          18.65     
Lake_Washington_Level 05/22/2001 0          18.65     
Lake_Washington_Level 05/23/2001 0          18.69     
Lake_Washington_Level 05/24/2001 0          18.69     
Lake_Washington_Level 05/25/2001 0          18.7      
Lake_Washington_Level 05/26/2001 0          18.7      
Lake_Washington_Level 05/27/2001 0          18.7      
Lake_Washington_Level 05/28/2001 0          18.7      
Lake_Washington_Level 05/29/2001 0          18.7      
Lake_Washington_Level 05/30/2001 0          18.7      
Lake_Washington_Level 05/31/2001 0          18.69     
Lake_Washington_Level 06/01/2001 0          18.7      
Lake_Washington_Level 06/02/2001 0          18.7      
Lake_Washington_Level 06/03/2001 0          18.7      
Lake_Washington_Level 06/04/2001 0          18.7      
Lake_Washington_Level 06/05/2001 0          18.69     
Lake_Washington_Level 06/06/2001 0          18.66     
Lake_Washington_Level 06/07/2001 0          18.69     
Lake_Washington_Level 06/08/2001 0          18.7      
Lake_Washington_Level 06/09/2001 0          18.73     
Lake_Washington_Level 06/10/2001 0          18.75     
Lake_Washington_Level 06/11/2001 0          18.78     
Lake_Washington_Level 06/12/2001 0          18.7      
Lake_Washington_Level 06/13/2001 0          18.7      
Lake_Washington_Level 06/14/2001 0          18.7      
Lake_Washington_Level 06/15/2001 0          18.69     
Lake_Washington_Level 06/16/2001 0          18.7      
Lake_Washington_Level 06/17/2001 0          18.65     
Lake_Washington_Level 06/18/2001 0          18.65     
Lake_Washington_Level 06/19/2001 0          18.65     
Lake_Washington_Level 06/20/2001 0          18.65     
Lake_Washington_Level 06/21/2001 0          18.65     
Lake_Washington_Level 06/22/2001 0          18.67     
Lake_Washington_Level 06/23/2001 0          18.66     
Lake_Washington_Level 06/24/2001 0          18.65     
Lake_Washington_Level 06/25/2001 0          18.64     
Lake_Washington_Level 06/26/2001 0          18.64     
Lake_Washington_Level 06/27/2001 0          18.65     
Lake_Washington_Level 06/28/2001 0          18.67     
Lake_Washington_Level 06/29/2001 0          18.68     
Lake_Washington_Level 06/30/2001 0          18.66     
Lake_Washington_Level 07/01/2001 0          18.64     
Lake_Washington_Level 07/02/2001 0          18.62     
Lake_Washington_Level 07/03/2001 0          18.62     
Lake_Washington_Level 07/04/2001 0          18.6      
Lake_Washington_Level 07/05/2001 0          18.6      
Lake_Washington_Level 07/06/2001 0          18.55     
Lake_Washington_Level 07/07/2001 0          18.55     
Lake_Washington_Level 07/08/2001 0          18.51     
Lake_Washington_Level 07/09/2001 0          18.47     
Lake_Washington_Level 07/10/2001 0          18.46     
Lake_Washington_Level 07/11/2001 0          18.45     
Lake_Washington_Level 07/12/2001 0          18.4      
Lake_Washington_Level 07/13/2001 0          18.41     
Lake_Washington_Level 07/14/2001 0          18.36     
Lake_Washington_Level 07/15/2001 0          18.35     
Lake_Washington_Level 07/16/2001 0          18.4      
Lake_Washington_Level 07/17/2001 0          18.42     
Lake_Washington_Level 07/18/2001 0          18.4      
Lake_Washington_Level 07/19/2001 0          18.41     
Lake_Washington_Level 07/20/2001 0          18.37     
Lake_Washington_Level 07/21/2001 0          18.35     
Lake_Washington_Level 07/22/2001 0          18.37     
Lake_Washington_Level 07/23/2001 0          18.35     
Lake_Washington_Level 07/24/2001 0          18.35     
Lake_Washington_Level 07/25/2001 0          18.35     
Lake_Washington_Level 07/26/2001 0          18.33     
Lake_Washington_Level 07/27/2001 0          18.32     
Lake_Washington_Level 07/28/2001 0          18.32     
Lake_Washington_Level 07/29/2001 0          18.33     
Lake_Washington_Level 07/30/2001 0          18.32     
Lake_Washington_Level 07/31/2001 0          18.31     
Lake_Washington_Level 08/01/2001 0          18.3      
Lake_Washington_Level 08/02/2001 0          18.28     
Lake_Washington_Level 08/03/2001 0          18.28     
Lake_Washington_Level 08/04/2001 0          18.27     
Lake_Washington_Level 08/05/2001 0          18.25     
Lake_Washington_Level 08/06/2001 0          18.23     
Lake_Washington_Level 08/07/2001 0          18.21     
Lake_Washington_Level 08/08/2001 0          18.17     
Lake_Washington_Level 08/09/2001 0          18.16     
Lake_Washington_Level 08/10/2001 0          18.15     
Lake_Washington_Level 08/11/2001 0          18.14     
Lake_Washington_Level 08/12/2001 0          18.11     
Lake_Washington_Level 08/13/2001 0          18.09     
Lake_Washington_Level 08/14/2001 0          18.05     
Lake_Washington_Level 08/15/2001 0          18.04     
Lake_Washington_Level 08/16/2001 0          18.02     
Lake_Washington_Level 08/17/2001 0          18.02     
Lake_Washington_Level 08/18/2001 0          18        
Lake_Washington_Level 08/19/2001 0          18        
Lake_Washington_Level 08/20/2001 0          17.97     
Lake_Washington_Level 08/21/2001 0          17.97     
Lake_Washington_Level 08/22/2001 0          18.05     
Lake_Washington_Level 08/23/2001 0          18.29     
Lake_Washington_Level 08/24/2001 0          18.2      
Lake_Washington_Level 08/25/2001 0          18.2      
Lake_Washington_Level 08/26/2001 0          18.21     
Lake_Washington_Level 08/27/2001 0          18.21     
Lake_Washington_Level 08/28/2001 0          18.2      
Lake_Washington_Level 08/29/2001 0          18.14     
Lake_Washington_Level 08/30/2001 0          18.1      
Lake_Washington_Level 08/31/2001 0          18.06     
Lake_Washington_Level 09/01/2001 0          18.06     
Lake_Washington_Level 09/02/2001 0          18.05     
Lake_Washington_Level 09/03/2001 0          18.05     
Lake_Washington_Level 09/04/2001 0          18.02     
Lake_Washington_Level 09/05/2001 0          18        
Lake_Washington_Level 09/06/2001 0          18        
Lake_Washington_Level 09/07/2001 0          17.99     
Lake_Washington_Level 09/08/2001 0          17.96     
Lake_Washington_Level 09/09/2001 0          17.95     
Lake_Washington_Level 09/10/2001 0          17.95     
Lake_Washington_Level 09/11/2001 0          17.93     
Lake_Washington_Level 09/12/2001 0          17.93     
Lake_Washington_Level 09/13/2001 0          17.91     
Lake_Washington_Level 09/14/2001 0          17.9      
Lake_Washington_Level 09/15/2001 0          17.9      
Lake_Washington_Level 09/16/2001 0          17.9      
Lake_Washington_Level 09/17/2001 0          17.86     
Lake_Washington_Level 09/18/2001 0          17.84     
Lake_Washington_Level 09/19/2001 0          17.84     
Lake_Washington_Level 09/20/2001 0          17.81     
Lake_Washington_Level 09/21/2001 0          17.82     
Lake_Washington_Level 09/22/2001 0          17.78     
Lake_Washington_Level 09/23/2001 0          17.77     
Lake_Washington_Level 09/24/2001 0          17.75     
Lake_Washington_Level 09/25/2001 0          17.73     
Lake_Washington_Level 09/26/2001 0          17.72     
Lake_Washington_Level 09/27/2001 0          17.7      
Lake_Washington_Level 09/28/2001 0          17.69     
Lake_Washington_Level 09/29/2001 0          17.68     
Lake_Washington_Level 09/30/2001 0          17.66     
Lake_Washington_Level 10/01/2001 0          17.65     
Lake_Washington_Level 10/02/2001 0          17.63     
Lake_Washington_Level 10/03/2001 0          17.62     
Lake_Washington_Level 10/04/2001 0          17.6      
Lake_Washington_Level 10/05/2001 0          17.59     
Lake_Washington_Level 10/06/2001 0          17.58     
Lake_Washington_Level 10/07/2001 0          17.56     
Lake_Washington_Level 10/08/2001 0          17.54     
Lake_Washington_Level 10/09/2001 0          17.53     
Lake_Washington_Level 10/10/2001 0          17.52     
Lake_Washington_Level 10/11/2001 0          17.5      
Lake_Washington_Level 10/12/2001 0          17.48     
Lake_Washington_Level 10/13/2001 0          17.47     
Lake_Washington_Level 10/14/2001 0          17.45     
Lake_Washington_Level 10/15/2001 0          17.44     
Lake_Washington_Level 10/16/2001 0          17.41     
Lake_Washington_Level 10/17/2001 0          17.41     
Lake_Washington_Level 10/18/2001 0          17.4      
Lake_Washington_Level 10/19/2001 0          17.38     
Lake_Washington_Level 10/20/2001 0          17.37     
Lake_Washington_Level 10/21/2001 0          17.36     
Lake_Washington_Level 10/22/2001 0          17.34     
Lake_Washington_Level 10/23/2001 0          17.32     
Lake_Washington_Level 10/24/2001 0          17.31     
Lake_Washington_Level 10/25/2001 0          17.3      
Lake_Washington_Level 10/26/2001 0          17.28     
Lake_Washington_Level 10/27/2001 0          17.27     
Lake_Washington_Level 10/28/2001 0          17.25     
Lake_Washington_Level 10/29/2001 0          17.24     
Lake_Washington_Level 10/30/2001 0          17.22     
Lake_Washington_Level 10/31/2001 0          17.2      
Lake_Washington_Level 11/01/2001 0          17.19     
Lake_Washington_Level 11/02/2001 0          17.17     
Lake_Washington_Level 11/03/2001 0          17.16     
Lake_Washington_Level 11/04/2001 0          17.15     
Lake_Washington_Level 11/05/2001 0          17.19     
Lake_Washington_Level 11/06/2001 0          17.12     
Lake_Washington_Level 11/07/2001 0          17.1      
Lake_Washington_Level 11/08/2001 0          17.09     
Lake_Washington_Level 11/09/2001 0          17.08     
Lake_Washington_Level 11/10/2001 0          17.06     
Lake_Washington_Level 11/11/2001 0          17.04     
Lake_Washington_Level 11/12/2001 0          17.03     
Lake_Washington_Level 11/13/2001 0          17.02     
Lake_Washington_Level 11/14/2001 0          17.02     
Lake_Washington_Level 11/15/2001 0          16.99     
Lake_Washington_Level 11/16/2001 0          16.97     
Lake_Washington_Level 11/17/2001 0          16.96     
Lake_Washington_Level 11/18/2001 0          16.94     
Lake_Washington_Level 11/19/2001 0          16.93     
Lake_Washington_Level 11/20/2001 0          16.91     
Lake_Washington_Level 11/21/2001 0          16.9      
Lake_Washington_Level 11/22/2001 0          16.88     
Lake_Washington_Level 11/23/2001 0          16.87     
Lake_Washington_Level 11/24/2001 0          16.85     
Lake_Washington_Level 11/25/2001 0          16.84     
Lake_Washington_Level 11/26/2001 0          16.82     
Lake_Washington_Level 11/27/2001 0          16.81     
Lake_Washington_Level 11/28/2001 0          16.81     
Lake_Washington_Level 11/29/2001 0          16.78     
Lake_Washington_Level 11/30/2001 0          16.76     
Lake_Washington_Level 12/01/2001 0          16.75     
Lake_Washington_Level 12/02/2001 0          16.75     
Lake_Washington_Level 12/03/2001 0          16.75     
Lake_Washington_Level 12/04/2001 0          16.75     
Lake_Washington_Level 12/05/2001 0          16.75     
Lake_Washington_Level 12/06/2001 0          16.75     
Lake_Washington_Level 12/07/2001 0          16.75     
Lake_Washington_Level 12/08/2001 0          16.75     
Lake_Washington_Level 12/09/2001 0          16.75     
Lake_Washington_Level 12/10/2001 0          16.75     
Lake_Washington_Level 12/11/2001 0          16.75     
Lake_Washington_Level 12/12/2001 0          16.75     
Lake_Washington_Level 12/13/2001 0          16.75     
Lake_Washington_Level 12/14/2001 0          16.75     
Lake_Washington_Level 12/15/2001 0          16.75     
Lake_Washington_Level 12/16/2001 0          16.75     
Lake_Washington_Level 12/17/2001 0          16.75     
Lake_Washington_Level 12/18/2001 0          16.75     
Lake_Washington_Level 12/19/2001 0          16.75     
Lake_Washington_Level 12/20/2001 0          16.75     
Lake_Washington_Level 12/21/2001 0          16.75     
Lake_Washington_Level 12/22/2001 0          16.75     
Lake_Washington_Level 12/23/2001 0          16.75     
Lake_Washington_Level 12/24/2001 0          16.75     
Lake_Washington_Level 12/25/2001 0          16.75     
Lake_Washington_Level 12/26/2001 0          16.75     
Lake_Washington_Level 12/27/2001 0          16.75     
Lake_Washington_Level 12/28/2001 0          16.75     
Lake_Washington_Level 12/29/2001 0          16.75     
Lake_Washington_Level 12/30/2001 0          16.75     
Lake_Washington_Level 12/31/2001 0          16.75     
Lake_Washington_Level 01/01/2002 0          16.75     
Lake_Washington_Level 01/02/2002 0          16.75     
Lake_Washington_Level 01/03/2002 0          16.75     
Lake_Washington_Level 01/04/2002 0          16.75     
Lake_Washington_Level 01/05/2002 0          16.75     
Lake_Washington_Level 01/06/2002 0          16.75     
Lake_Washington_Level 01/07/2002 0          16.75     
Lake_Washington_Level 01/08/2002 0          16.75     
Lake_Washington_Level 01/09/2002 0          16.75     
Lake_Washington_Level 01/10/2002 0          16.75     
Lake_Washington_Level 01/11/2002 0          16.75     
Lake_Washington_Level 01/12/2002 0          16.75     
Lake_Washington_Level 01/13/2002 0          16.75     
Lake_Washington_Level 01/14/2002 0          16.75     
Lake_Washington_Level 01/15/2002 0          16.75     
Lake_Washington_Level 01/16/2002 0          16.75     
Lake_Washington_Level 01/17/2002 0          16.75     
Lake_Washington_Level 01/18/2002 0          16.75     
Lake_Washington_Level 01/19/2002 0          16.75     
Lake_Washington_Level 01/20/2002 0          16.75     
Lake_Washington_Level 01/21/2002 0          16.75     
Lake_Washington_Level 01/22/2002 0          16.75     
Lake_Washington_Level 01/23/2002 0          16.75     
Lake_Washington_Level 01/24/2002 0          16.75     
Lake_Washington_Level 01/25/2002 0          16.75     
Lake_Washington_Level 01/26/2002 0          16.75     
Lake_Washington_Level 01/27/2002 0          16.75     
Lake_Washington_Level 01/28/2002 0          16.75     
Lake_Washington_Level 01/29/2002 0          16.75     
Lake_Washington_Level 01/30/2002 0          16.75     
Lake_Washington_Level 01/31/2002 0          16.75     
Lake_Washington_Level 02/01/2002 0          16.75     
Lake_Washington_Level 02/02/2002 0          16.75     
Lake_Washington_Level 02/03/2002 0          16.75     
Lake_Washington_Level 02/04/2002 0          16.75     
Lake_Washington_Level 02/05/2002 0          16.75     
Lake_Washington_Level 02/06/2002 0          16.75     
Lake_Washington_Level 02/07/2002 0          16.75     
Lake_Washington_Level 02/08/2002 0          16.75     
Lake_Washington_Level 02/09/2002 0          16.75     
Lake_Washington_Level 02/10/2002 0          16.75     
Lake_Washington_Level 02/11/2002 0          16.75     
Lake_Washington_Level 02/12/2002 0          16.75     
Lake_Washington_Level 02/13/2002 0          16.75     
Lake_Washington_Level 02/14/2002 0          16.75     
Lake_Washington_Level 02/15/2002 0          16.78     
Lake_Washington_Level 02/16/2002 0          16.93     
Lake_Washington_Level 02/17/2002 0          17.02     
Lake_Washington_Level 02/18/2002 0          17.09     
Lake_Washington_Level 02/19/2002 0          17.19     
Lake_Washington_Level 02/20/2002 0          17.01     
Lake_Washington_Level 02/21/2002 0          17.01     
Lake_Washington_Level 02/22/2002 0          17.01     
Lake_Washington_Level 02/23/2002 0          17        
Lake_Washington_Level 02/24/2002 0          17        
Lake_Washington_Level 02/25/2002 0          17.01     
Lake_Washington_Level 02/26/2002 0          17.01     
Lake_Washington_Level 02/27/2002 0          17.04     
Lake_Washington_Level 02/28/2002 0          17.07     
Lake_Washington_Level 03/01/2002 0          17.09     
Lake_Washington_Level 03/02/2002 0          17.12     
Lake_Washington_Level 03/03/2002 0          17.14     
Lake_Washington_Level 03/04/2002 0          17.17     
Lake_Washington_Level 03/05/2002 0          17.19     
Lake_Washington_Level 03/06/2002 0          17.21     
Lake_Washington_Level 03/07/2002 0          17.24     
Lake_Washington_Level 03/08/2002 0          17.26     
Lake_Washington_Level 03/09/2002 0          17.29     
Lake_Washington_Level 03/10/2002 0          17.31     
Lake_Washington_Level 03/11/2002 0          17.34     
Lake_Washington_Level 03/12/2002 0          17.36     
Lake_Washington_Level 03/13/2002 0          17.36     
Lake_Washington_Level 03/14/2002 0          17.4      
Lake_Washington_Level 03/15/2002 0          17.43     
Lake_Washington_Level 03/16/2002 0          17.45     
Lake_Washington_Level 03/17/2002 0          17.48     
Lake_Washington_Level 03/18/2002 0          17.51     
Lake_Washington_Level 03/19/2002 0          17.53     
Lake_Washington_Level 03/20/2002 0          17.56     
Lake_Washington_Level 03/21/2002 0          17.58     
Lake_Washington_Level 03/22/2002 0          17.61     
Lake_Washington_Level 03/23/2002 0          17.63     
Lake_Washington_Level 03/24/2002 0          17.65     
Lake_Washington_Level 03/25/2002 0          17.68     
Lake_Washington_Level 03/26/2002 0          17.7      
Lake_Washington_Level 03/27/2002 0          17.73     
Lake_Washington_Level 03/28/2002 0          17.75     
Lake_Washington_Level 03/29/2002 0          17.78     
Lake_Washington_Level 03/30/2002 0          17.8      
Lake_Washington_Level 03/31/2002 0          17.85     
Lake_Washington_Level 04/01/2002 0          17.85     
Lake_Washington_Level 04/02/2002 0          17.88     
Lake_Washington_Level 04/03/2002 0          17.9      
Lake_Washington_Level 04/04/2002 0          17.93     
Lake_Washington_Level 04/05/2002 0          17.95     
Lake_Washington_Level 04/06/2002 0          17.98     
Lake_Washington_Level 04/07/2002 0          18        
Lake_Washington_Level 04/08/2002 0          18.03     
Lake_Washington_Level 04/09/2002 0          18.05     
Lake_Washington_Level 04/10/2002 0          18.08     
Lake_Washington_Level 04/11/2002 0          18.1      
Lake_Washington_Level 04/12/2002 0          18.24     
Lake_Washington_Level 04/13/2002 0          18.17     
Lake_Washington_Level 04/14/2002 0          18.18     
Lake_Washington_Level 04/15/2002 0          18.2      
Lake_Washington_Level 04/16/2002 0          18.23     
Lake_Washington_Level 04/17/2002 0          18.255    
Lake_Washington_Level 04/18/2002 0          18.28     
Lake_Washington_Level 04/19/2002 0          18.32     
Lake_Washington_Level 04/20/2002 0          18.33     
Lake_Washington_Level 04/21/2002 0          18.35     
Lake_Washington_Level 04/22/2002 0          18.38     
Lake_Washington_Level 04/23/2002 0          18.4      
Lake_Washington_Level 04/24/2002 0          18.43     
Lake_Washington_Level 04/25/2002 0          18.45     
Lake_Washington_Level 04/26/2002 0          18.48     
Lake_Washington_Level 04/27/2002 0          18.5      
Lake_Washington_Level 04/28/2002 0          18.53     
Lake_Washington_Level 04/29/2002 0          18.55     
Lake_Washington_Level 04/30/2002 0          18.58     
Lake_Washington_Level 05/01/2002 0          18.6      
Lake_Washington_Level 05/02/2002 0          18.6      
Lake_Washington_Level 05/03/2002 0          18.6      
Lake_Washington_Level 05/04/2002 0          18.6      
Lake_Washington_Level 05/05/2002 0          18.55     
Lake_Washington_Level 05/06/2002 0          18.59     
Lake_Washington_Level 05/07/2002 0          18.58     
Lake_Washington_Level 05/08/2002 0          18.62     
Lake_Washington_Level 05/09/2002 0          18.62     
Lake_Washington_Level 05/10/2002 0          18.6      
Lake_Washington_Level 05/11/2002 0          18.62     
Lake_Washington_Level 05/12/2002 0          18.63     
Lake_Washington_Level 05/13/2002 0          18.63     
Lake_Washington_Level 05/14/2002 0          18.64     
Lake_Washington_Level 05/15/2002 0          18.64     
Lake_Washington_Level 05/16/2002 0          18.64     
Lake_Washington_Level 05/17/2002 0          18.59     
Lake_Washington_Level 05/18/2002 0          18.61     
Lake_Washington_Level 05/19/2002 0          18.62     
Lake_Washington_Level 05/20/2002 0          18.65     
Lake_Washington_Level 05/21/2002 0          18.65     
Lake_Washington_Level 05/22/2002 0          18.66     
Lake_Washington_Level 05/23/2002 0          18.66     
Lake_Washington_Level 05/24/2002 0          18.6      
Lake_Washington_Level 05/25/2002 0          18.54     
Lake_Washington_Level 05/26/2002 0          18.45     
Lake_Washington_Level 05/27/2002 0          18.46     
Lake_Washington_Level 05/28/2002 0          18.51     
Lake_Washington_Level 05/29/2002 0          18.61     
Lake_Washington_Level 05/30/2002 0          18.55     
Lake_Washington_Level 05/31/2002 0          18.56     
Lake_Washington_Level 06/01/2002 0          18.58     
Lake_Washington_Level 06/02/2002 0          18.6      
Lake_Washington_Level 06/03/2002 0          18.61     
Lake_Washington_Level 06/04/2002 0          18.6      
Lake_Washington_Level 06/05/2002 0          18.6      
Lake_Washington_Level 06/06/2002 0          18.64     
Lake_Washington_Level 06/07/2002 0          18.56     
Lake_Washington_Level 06/08/2002 0          18.6      
Lake_Washington_Level 06/09/2002 0          18.6      
Lake_Washington_Level 06/10/2002 0          18.65     
Lake_Washington_Level 06/11/2002 0          18.65     
Lake_Washington_Level 06/12/2002 0          18.61     
Lake_Washington_Level 06/13/2002 0          18.62     
Lake_Washington_Level 06/14/2002 0          18.6      
Lake_Washington_Level 06/15/2002 0          18.6      
Lake_Washington_Level 06/16/2002 0          18.55     
Lake_Washington_Level 06/17/2002 0          18.55     
Lake_Washington_Level 06/18/2002 0          18.57     
Lake_Washington_Level 06/19/2002 0          18.61     
Lake_Washington_Level 06/20/2002 0          18.65     
Lake_Washington_Level 06/21/2002 0          18.7      
Lake_Washington_Level 06/22/2002 0          18.67     
Lake_Washington_Level 06/23/2002 0          18.65     
Lake_Washington_Level 06/24/2002 0          18.71     
Lake_Washington_Level 06/25/2002 0          18.67     
Lake_Washington_Level 06/26/2002 0          18.7      
Lake_Washington_Level 06/27/2002 0          18.62     
Lake_Washington_Level 06/28/2002 0          18.68     
Lake_Washington_Level 06/29/2002 0          18.65     
Lake_Washington_Level 06/30/2002 0          18.62     
Lake_Washington_Level 07/01/2002 0          18.66     
Lake_Washington_Level 07/02/2002 0          18.67     
Lake_Washington_Level 07/03/2002 0          18.67     
Lake_Washington_Level 07/04/2002 0          18.65     
Lake_Washington_Level 07/05/2002 0          18.64     
Lake_Washington_Level 07/06/2002 0          18.6      
Lake_Washington_Level 07/07/2002 0          18.59     
Lake_Washington_Level 07/08/2002 0          18.64     
Lake_Washington_Level 07/09/2002 0          18.66     
Lake_Washington_Level 07/10/2002 0          18.62     
Lake_Washington_Level 07/11/2002 0          18.62     
Lake_Washington_Level 07/12/2002 0          18.62     
Lake_Washington_Level 07/13/2002 0          18.59     
Lake_Washington_Level 07/14/2002 0          18.55     
Lake_Washington_Level 07/15/2002 0          18.55     
Lake_Washington_Level 07/16/2002 0          18.53     
Lake_Washington_Level 07/17/2002 0          18.49     
Lake_Washington_Level 07/18/2002 0          18.49     
Lake_Washington_Level 07/19/2002 0          18.45     
Lake_Washington_Level 07/20/2002 0          18.41     
Lake_Washington_Level 07/21/2002 0          18.38     
Lake_Washington_Level 07/22/2002 0          18.38     
Lake_Washington_Level 07/23/2002 0          18.35     
Lake_Washington_Level 07/24/2002 0          18.32     
Lake_Washington_Level 07/25/2002 0          18.26     
Lake_Washington_Level 07/26/2002 0          18.25     
Lake_Washington_Level 07/27/2002 0          18.22     
Lake_Washington_Level 07/28/2002 0          18.19     
Lake_Washington_Level 07/29/2002 0          18.17     
Lake_Washington_Level 07/30/2002 0          18.15     
Lake_Washington_Level 07/31/2002 0          18.13     
Lake_Washington_Level 08/01/2002 0          18.09     
Lake_Washington_Level 08/02/2002 0          18.06     
Lake_Washington_Level 08/03/2002 0          18.03     
Lake_Washington_Level 08/04/2002 0          18.02     
Lake_Washington_Level 08/05/2002 0          17.98     
Lake_Washington_Level 08/06/2002 0          17.94     
Lake_Washington_Level 08/07/2002 0          17.93     
Lake_Washington_Level 08/08/2002 0          17.9      
Lake_Washington_Level 08/09/2002 0          17.88     
Lake_Washington_Level 08/10/2002 0          17.8575   
Lake_Washington_Level 08/11/2002 0          17.835    
Lake_Washington_Level 08/12/2002 0          17.8125   
Lake_Washington_Level 08/13/2002 0          17.79     
Lake_Washington_Level 08/14/2002 0          17.75     
Lake_Washington_Level 08/15/2002 0          17.72     
Lake_Washington_Level 08/16/2002 0          17.7      
Lake_Washington_Level 08/17/2002 0          17.68     
Lake_Washington_Level 08/18/2002 0          17.64     
Lake_Washington_Level 08/19/2002 0          17.61     
Lake_Washington_Level 08/20/2002 0          17.6      
Lake_Washington_Level 08/21/2002 0          17.57     
Lake_Washington_Level 08/22/2002 0          17.53     
Lake_Washington_Level 08/23/2002 0          17.52     
Lake_Washington_Level 08/24/2002 0          17.51     
Lake_Washington_Level 08/25/2002 0          17.48     
Lake_Washington_Level 08/26/2002 0          17.46     
Lake_Washington_Level 08/27/2002 0          17.45     
Lake_Washington_Level 08/28/2002 0          17.42     
Lake_Washington_Level 08/29/2002 0          17.41     
Lake_Washington_Level 08/30/2002 0          17.34     
Lake_Washington_Level 08/31/2002 0          17.34     
Lake_Washington_Level 09/01/2002 0          17.32     
Lake_Washington_Level 09/02/2002 0          17.32     
Lake_Washington_Level 09/03/2002 0          17.3      
Lake_Washington_Level 09/04/2002 0          17.28     
Lake_Washington_Level 09/05/2002 0          17.24     
Lake_Washington_Level 09/06/2002 0          17.23     
Lake_Washington_Level 09/07/2002 0          17.22     
Lake_Washington_Level 09/08/2002 0          17.21     
Lake_Washington_Level 09/09/2002 0          17.19     
Lake_Washington_Level 09/10/2002 0          17.15     
Lake_Washington_Level 09/11/2002 0          17.15     
Lake_Washington_Level 09/12/2002 0          17.13     
Lake_Washington_Level 09/13/2002 0          17.09     
Lake_Washington_Level 09/14/2002 0          17.09     
Lake_Washington_Level 09/15/2002 0          17.07     
Lake_Washington_Level 09/16/2002 0          17.08     
Lake_Washington_Level 09/17/2002 0          17.09     
Lake_Washington_Level 09/18/2002 0          17.05     
Lake_Washington_Level 09/19/2002 0          17.04     
Lake_Washington_Level 09/20/2002 0          17.06     
Lake_Washington_Level 09/21/2002 0          17.06     
Lake_Washington_Level 09/22/2002 0          17.02     
Lake_Washington_Level 09/23/2002 0          16.99     
Lake_Washington_Level 09/24/2002 0          16.97     
Lake_Washington_Level 09/25/2002 0          16.97     
Lake_Washington_Level 09/26/2002 0          16.96     
Lake_Washington_Level 09/27/2002 0          16.95     
Lake_Washington_Level 09/28/2002 0          16.95     
Lake_Washington_Level 09/29/2002 0          16.98     
Lake_Washington_Level 09/30/2002 0          16.98     
Lake_Washington_Level 10/01/2002 0          16.97     
Lake_Washington_Level 10/02/2002 0          16.97     
Lake_Washington_Level 10/03/2002 0          16.98     
Lake_Washington_Level 10/04/2002 0          17        
Lake_Washington_Level 10/05/2002 0          17.03     
Lake_Washington_Level 10/06/2002 0          17.03     
Lake_Washington_Level 10/07/2002 0          17.06     
Lake_Washington_Level 10/08/2002 0          17.08     
Lake_Washington_Level 10/09/2002 0          17.08     
Lake_Washington_Level 10/10/2002 0          17.09     
Lake_Washington_Level 10/11/2002 0          17.12     
Lake_Washington_Level 10/12/2002 0          17.1      
Lake_Washington_Level 10/13/2002 0          17.1      
Lake_Washington_Level 10/14/2002 0          17.12     
Lake_Washington_Level 10/15/2002 0          17.12     
Lake_Washington_Level 10/16/2002 0          17.14     
Lake_Washington_Level 10/17/2002 0          17.16     
Lake_Washington_Level 10/18/2002 0          17.17     
Lake_Washington_Level 10/19/2002 0          17.17     
Lake_Washington_Level 10/20/2002 0          17.19     
Lake_Washington_Level 10/21/2002 0          17.23     
Lake_Washington_Level 10/22/2002 0          17.22     
Lake_Washington_Level 10/23/2002 0          17.24     
Lake_Washington_Level 10/24/2002 0          17.24     
Lake_Washington_Level 10/25/2002 0          17.28     
Lake_Washington_Level 10/26/2002 0          17.25     
Lake_Washington_Level 10/27/2002 0          17.28     
Lake_Washington_Level 10/28/2002 0          17.25     
Lake_Washington_Level 10/29/2002 0          17.23     
Lake_Washington_Level 10/30/2002 0          17.21     
Lake_Washington_Level 10/31/2002 0          17.2      
Lake_Washington_Level 11/01/2002 0          17.19     
Lake_Washington_Level 11/02/2002 0          17.18     
Lake_Washington_Level 11/03/2002 0          17.16     
Lake_Washington_Level 11/04/2002 0          17.14     
Lake_Washington_Level 11/05/2002 0          17.13     
Lake_Washington_Level 11/06/2002 0          17.12     
Lake_Washington_Level 11/07/2002 0          17.12     
Lake_Washington_Level 11/08/2002 0          17.08     
Lake_Washington_Level 11/09/2002 0          17.07     
Lake_Washington_Level 11/10/2002 0          17.06     
Lake_Washington_Level 11/11/2002 0          17.03     
Lake_Washington_Level 11/12/2002 0          17.07     
Lake_Washington_Level 11/13/2002 0          17.01     
Lake_Washington_Level 11/14/2002 0          16.99     
Lake_Washington_Level 11/15/2002 0          16.99     
Lake_Washington_Level 11/16/2002 0          16.96     
Lake_Washington_Level 11/17/2002 0          16.93     
Lake_Washington_Level 11/18/2002 0          16.92     
Lake_Washington_Level 11/19/2002 0          16.95     
Lake_Washington_Level 11/20/2002 0          16.91     
Lake_Washington_Level 11/21/2002 0          16.895    
Lake_Washington_Level 11/22/2002 0          16.88     
Lake_Washington_Level 11/23/2002 0          16.85     
Lake_Washington_Level 11/24/2002 0          16.87     
Lake_Washington_Level 11/25/2002 0          16.87     
Lake_Washington_Level 11/26/2002 0          16.83     
Lake_Washington_Level 11/27/2002 0          16.8      
Lake_Washington_Level 11/28/2002 0          16.81     
Lake_Washington_Level 11/29/2002 0          16.78     
Lake_Washington_Level 11/30/2002 0          16.76     
Lake_Washington_Level 12/01/2002 0          16.75     
Lake_Washington_Level 12/02/2002 0          16.75     
Lake_Washington_Level 12/03/2002 0          16.75     
Lake_Washington_Level 12/04/2002 0          16.75     
Lake_Washington_Level 12/05/2002 0          16.75     
Lake_Washington_Level 12/06/2002 0          16.75     
Lake_Washington_Level 12/07/2002 0          16.75     
Lake_Washington_Level 12/08/2002 0          16.75     
Lake_Washington_Level 12/09/2002 0          16.75     
Lake_Washington_Level 12/10/2002 0          16.75     
Lake_Washington_Level 12/11/2002 0          16.75     
Lake_Washington_Level 12/12/2002 0          16.75     
Lake_Washington_Level 12/13/2002 0          16.75     
Lake_Washington_Level 12/14/2002 0          16.75     
Lake_Washington_Level 12/15/2002 0          16.75     
Lake_Washington_Level 12/16/2002 0          16.75     
Lake_Washington_Level 12/17/2002 0          16.75     
Lake_Washington_Level 12/18/2002 0          16.75     
Lake_Washington_Level 12/19/2002 0          16.75     
Lake_Washington_Level 12/20/2002 0          16.75     
Lake_Washington_Level 12/21/2002 0          16.74     
Lake_Washington_Level 12/22/2002 0          16.75     
Lake_Washington_Level 12/23/2002 0          16.75     
Lake_Washington_Level 12/24/2002 0          16.75     
Lake_Washington_Level 12/25/2002 0          16.75     
Lake_Washington_Level 12/26/2002 0          16.75     
Lake_Washington_Level 12/27/2002 0          16.75     
Lake_Washington_Level 12/28/2002 0          16.75     
Lake_Washington_Level 12/29/2002 0          16.75     
Lake_Washington_Level 12/30/2002 0          16.75     
Lake_Washington_Level 12/31/2002 0          16.76     
Lake_Washington_Level 01/01/2003 0          16.75     
Lake_Washington_Level 01/02/2003 0          16.75     
Lake_Washington_Level 01/03/2003 0          16.75     
Lake_Washington_Level 01/04/2003 0          16.75     
Lake_Washington_Level 01/05/2003 0          16.75     
Lake_Washington_Level 01/06/2003 0          16.75     
Lake_Washington_Level 01/07/2003 0          16.75     
Lake_Washington_Level 01/08/2003 0          16.75     
Lake_Washington_Level 01/09/2003 0          16.75     
Lake_Washington_Level 01/10/2003 0          16.75     
Lake_Washington_Level 01/11/2003 0          16.76     
Lake_Washington_Level 01/12/2003 0          16.75     
Lake_Washington_Level 01/13/2003 0          16.75     
Lake_Washington_Level 01/14/2003 0          16.75     
Lake_Washington_Level 01/15/2003 0          16.75     
Lake_Washington_Level 01/16/2003 0          16.75     
Lake_Washington_Level 01/17/2003 0          16.78     
Lake_Washington_Level 01/18/2003 0          16.78     
Lake_Washington_Level 01/19/2003 0          16.75     
Lake_Washington_Level 01/20/2003 0          16.75     
Lake_Washington_Level 01/21/2003 0          16.77     
Lake_Washington_Level 01/22/2003 0          16.77     
Lake_Washington_Level 01/23/2003 0          16.75     
Lake_Washington_Level 01/24/2003 0          16.75     
Lake_Washington_Level 01/25/2003 0          16.76     
Lake_Washington_Level 01/26/2003 0          16.77     
Lake_Washington_Level 01/27/2003 0          16.77     
Lake_Washington_Level 01/28/2003 0          16.75     
Lake_Washington_Level 01/29/2003 0          16.78     
Lake_Washington_Level 01/30/2003 0          16.76     
Lake_Washington_Level 01/31/2003 0          16.78     
Lake_Washington_Level 02/01/2003 0          16.78     
Lake_Washington_Level 02/02/2003 0          16.79     
Lake_Washington_Level 02/03/2003 0          16.79     
Lake_Washington_Level 02/04/2003 0          16.79     
Lake_Washington_Level 02/05/2003 0          16.84     
Lake_Washington_Level 02/06/2003 0          16.98     
Lake_Washington_Level 02/07/2003 0          16.94     
Lake_Washington_Level 02/08/2003 0          16.96     
Lake_Washington_Level 02/09/2003 0          17.03     
Lake_Washington_Level 02/10/2003 0          17.03     
Lake_Washington_Level 02/11/2003 0          17.06     
Lake_Washington_Level 02/12/2003 0          17.11     
Lake_Washington_Level 02/13/2003 0          17.12     
Lake_Washington_Level 02/14/2003 0          17.14     
Lake_Washington_Level 02/15/2003 0          17.15     
Lake_Washington_Level 02/16/2003 0          17.23     
Lake_Washington_Level 02/17/2003 0          17.21     
Lake_Washington_Level 02/18/2003 0          17.25     
Lake_Washington_Level 02/19/2003 0          17.31     
Lake_Washington_Level 02/20/2003 0          17.29     
Lake_Washington_Level 02/21/2003 0          17.3      
Lake_Washington_Level 02/22/2003 0          17.35     
Lake_Washington_Level 02/23/2003 0          17.4      
Lake_Washington_Level 02/24/2003 0          17.39     
Lake_Washington_Level 02/25/2003 0          17.44     
Lake_Washington_Level 02/26/2003 0          17.45     
Lake_Washington_Level 02/27/2003 0          17.44     
Lake_Washington_Level 02/28/2003 0          17.51     
Lake_Washington_Level 03/01/2003 0          17.49     
Lake_Washington_Level 03/02/2003 0          17.53     
Lake_Washington_Level 03/03/2003 0          17.54     
Lake_Washington_Level 03/04/2003 0          17.55     
Lake_Washington_Level 03/05/2003 0          17.59     
Lake_Washington_Level 03/06/2003 0          17.59     
Lake_Washington_Level 03/07/2003 0          17.67     
Lake_Washington_Level 03/08/2003 0          17.69     
Lake_Washington_Level 03/09/2003 0          17.7      
Lake_Washington_Level 03/10/2003 0          17.71     
Lake_Washington_Level 03/11/2003 0          17.77     
Lake_Washington_Level 03/12/2003 0          17.79     
Lake_Washington_Level 03/13/2003 0          17.79     
Lake_Washington_Level 03/14/2003 0          17.83     
Lake_Washington_Level 03/15/2003 0          17.84     
Lake_Washington_Level 03/16/2003 0          17.87     
Lake_Washington_Level 03/17/2003 0          17.9      
Lake_Washington_Level 03/18/2003 0          17.91     
Lake_Washington_Level 03/19/2003 0          17.95     
Lake_Washington_Level 03/20/2003 0          17.98     
Lake_Washington_Level 03/21/2003 0          17.98     
Lake_Washington_Level 03/22/2003 0          18.01     
Lake_Washington_Level 03/23/2003 0          18.03     
Lake_Washington_Level 03/24/2003 0          18.05     
Lake_Washington_Level 03/25/2003 0          18.08     
Lake_Washington_Level 03/26/2003 0          18.12     
Lake_Washington_Level 03/27/2003 0          18.1      
Lake_Washington_Level 03/28/2003 0          18.18     
Lake_Washington_Level 03/29/2003 0          18.18     
Lake_Washington_Level 03/30/2003 0          18.2      
Lake_Washington_Level 03/31/2003 0          18.23     
Lake_Washington_Level 04/01/2003 0          18.25     
Lake_Washington_Level 04/02/2003 0          18.26     
Lake_Washington_Level 04/03/2003 0          18.27     
Lake_Washington_Level 04/04/2003 0          18.29     
Lake_Washington_Level 04/05/2003 0          18.31     
Lake_Washington_Level 04/06/2003 0          18.31     
Lake_Washington_Level 04/07/2003 0          18.32     
Lake_Washington_Level 04/08/2003 0          18.33     
Lake_Washington_Level 04/09/2003 0          18.34     
Lake_Washington_Level 04/10/2003 0          18.36     
Lake_Washington_Level 04/11/2003 0          18.33     
Lake_Washington_Level 04/12/2003 0          18.4      
Lake_Washington_Level 04/13/2003 0          18.43     
Lake_Washington_Level 04/14/2003 0          18.41     
Lake_Washington_Level 04/15/2003 0          18.43     
Lake_Washington_Level 04/16/2003 0          18.43     
Lake_Washington_Level 04/17/2003 0          18.44     
Lake_Washington_Level 04/18/2003 0          18.45     
Lake_Washington_Level 04/19/2003 0          18.46     
Lake_Washington_Level 04/20/2003 0          18.47     
Lake_Washington_Level 04/21/2003 0          18.48     
Lake_Washington_Level 04/22/2003 0          18.5      
Lake_Washington_Level 04/23/2003 0          18.5      
Lake_Washington_Level 04/24/2003 0          18.52     
Lake_Washington_Level 04/25/2003 0          18.53     
Lake_Washington_Level 04/26/2003 0          18.56     
Lake_Washington_Level 04/27/2003 0          18.53     
Lake_Washington_Level 04/28/2003 0          18.56     
Lake_Washington_Level 04/29/2003 0          18.56     
Lake_Washington_Level 04/30/2003 0          18.55     
Lake_Washington_Level 05/01/2003 0          18.57     
Lake_Washington_Level 05/02/2003 0          18.54     
Lake_Washington_Level 05/03/2003 0          18.5      
Lake_Washington_Level 05/04/2003 0          18.51     
Lake_Washington_Level 05/05/2003 0          18.56     
Lake_Washington_Level 05/06/2003 0          18.6      
Lake_Washington_Level 05/07/2003 0          18.62     
Lake_Washington_Level 05/08/2003 0          18.58     
Lake_Washington_Level 05/09/2003 0          18.58     
Lake_Washington_Level 05/10/2003 0          18.59     
Lake_Washington_Level 05/11/2003 0          18.59     
Lake_Washington_Level 05/12/2003 0          18.59     
Lake_Washington_Level 05/13/2003 0          18.59     
Lake_Washington_Level 05/14/2003 0          18.59     
Lake_Washington_Level 05/15/2003 0          18.59     
Lake_Washington_Level 05/16/2003 0          18.56     
Lake_Washington_Level 05/17/2003 0          18.63     
Lake_Washington_Level 05/18/2003 0          18.64     
Lake_Washington_Level 05/19/2003 0          18.65     
Lake_Washington_Level 05/20/2003 0          18.68     
Lake_Washington_Level 05/21/2003 0          18.65     
Lake_Washington_Level 05/22/2003 0          18.65     
Lake_Washington_Level 05/23/2003 0          18.63     
Lake_Washington_Level 05/24/2003 0          18.64     
Lake_Washington_Level 05/25/2003 0          18.67     
Lake_Washington_Level 05/26/2003 0          18.68     
Lake_Washington_Level 05/27/2003 0          18.68     
Lake_Washington_Level 05/28/2003 0          18.69     
Lake_Washington_Level 05/29/2003 0          18.63     
Lake_Washington_Level 05/30/2003 0          18.65     
Lake_Washington_Level 05/31/2003 0          18.64     
Lake_Washington_Level 06/01/2003 0          18.64     
Lake_Washington_Level 06/02/2003 0          18.62     
Lake_Washington_Level 06/03/2003 0          18.61     
Lake_Washington_Level 06/04/2003 0          18.6      
Lake_Washington_Level 06/05/2003 0          18.62     
Lake_Washington_Level 06/06/2003 0          18.58     
Lake_Washington_Level 06/07/2003 0          18.57     
Lake_Washington_Level 06/08/2003 0          18.55     
Lake_Washington_Level 06/09/2003 0          18.52     
Lake_Washington_Level 06/10/2003 0          18.5      
Lake_Washington_Level 06/11/2003 0          18.45     
Lake_Washington_Level 06/12/2003 0          18.48     
Lake_Washington_Level 06/13/2003 0          18.46     
Lake_Washington_Level 06/14/2003 0          18.45     
Lake_Washington_Level 06/15/2003 0          18.43     
Lake_Washington_Level 06/16/2003 0          18.4      
Lake_Washington_Level 06/17/2003 0          18.39     
Lake_Washington_Level 06/18/2003 0          18.41     
Lake_Washington_Level 06/19/2003 0          18.38     
Lake_Washington_Level 06/20/2003 0          18.39     
Lake_Washington_Level 06/21/2003 0          18.36     
Lake_Washington_Level 06/22/2003 0          18.45     
Lake_Washington_Level 06/23/2003 0          18.43     
Lake_Washington_Level 06/24/2003 0          18.41     
Lake_Washington_Level 06/25/2003 0          18.4      
Lake_Washington_Level 06/26/2003 0          18.4      
Lake_Washington_Level 06/27/2003 0          18.36     
Lake_Washington_Level 06/28/2003 0          18.36     
Lake_Washington_Level 06/29/2003 0          18.37     
Lake_Washington_Level 06/30/2003 0          18.35     
Lake_Washington_Level 07/01/2003 0          18.3      
Lake_Washington_Level 07/02/2003 0          18.32     
Lake_Washington_Level 07/03/2003 0          18.29     
Lake_Washington_Level 07/04/2003 0          18.265    
Lake_Washington_Level 07/05/2003 0          18.24     
Lake_Washington_Level 07/06/2003 0          18.22     
Lake_Washington_Level 07/07/2003 0          18.18     
Lake_Washington_Level 07/08/2003 0          18.18     
Lake_Washington_Level 07/09/2003 0          18.15     
Lake_Washington_Level 07/10/2003 0          18.14     
Lake_Washington_Level 07/11/2003 0          18.13     
Lake_Washington_Level 07/12/2003 0          18.14     
Lake_Washington_Level 07/13/2003 0          18.14     
Lake_Washington_Level 07/14/2003 0          18.11     
Lake_Washington_Level 07/15/2003 0          18.09     
Lake_Washington_Level 07/16/2003 0          18.08     
Lake_Washington_Level 07/17/2003 0          18.06     
Lake_Washington_Level 07/18/2003 0          18.02     
Lake_Washington_Level 07/19/2003 0          18.01     
Lake_Washington_Level 07/20/2003 0          17.99     
Lake_Washington_Level 07/21/2003 0          17.98     
Lake_Washington_Level 07/22/2003 0          17.95     
Lake_Washington_Level 07/23/2003 0          17.94     
Lake_Washington_Level 07/24/2003 0          17.91     
Lake_Washington_Level 07/25/2003 0          17.89     
Lake_Washington_Level 07/26/2003 0          17.83     
Lake_Washington_Level 07/27/2003 0          17.81     
Lake_Washington_Level 07/28/2003 0          17.8      
Lake_Washington_Level 07/29/2003 0          17.83     
Lake_Washington_Level 07/30/2003 0          17.81     
Lake_Washington_Level 07/31/2003 0          17.78     
Lake_Washington_Level 08/01/2003 0          17.77     
Lake_Washington_Level 08/02/2003 0          17.74     
Lake_Washington_Level 08/03/2003 0          17.71     
Lake_Washington_Level 08/04/2003 0          17.68     
Lake_Washington_Level 08/05/2003 0          17.64     
Lake_Washington_Level 08/06/2003 0          17.63     
Lake_Washington_Level 08/07/2003 0          17.6      
Lake_Washington_Level 08/08/2003 0          17.58     
Lake_Washington_Level 08/09/2003 0          17.57     
Lake_Washington_Level 08/10/2003 0          17.56     
Lake_Washington_Level 08/11/2003 0          17.59     
Lake_Washington_Level 08/12/2003 0          17.58     
Lake_Washington_Level 08/13/2003 0          17.55     
Lake_Washington_Level 08/14/2003 0          17.52     
Lake_Washington_Level 08/15/2003 0          17.5      
Lake_Washington_Level 08/16/2003 0          17.5      
Lake_Washington_Level 08/17/2003 0          17.46     
Lake_Washington_Level 08/18/2003 0          17.44     
Lake_Washington_Level 08/19/2003 0          17.41     
Lake_Washington_Level 08/20/2003 0          17.4      
Lake_Washington_Level 08/21/2003 0          17.37     
Lake_Washington_Level 08/22/2003 0          17.36     
Lake_Washington_Level 08/23/2003 0          17.33     
Lake_Washington_Level 08/24/2003 0          17.31     
Lake_Washington_Level 08/25/2003 0          17.27     
Lake_Washington_Level 08/26/2003 0          17.27     
Lake_Washington_Level 08/27/2003 0          17.24     
Lake_Washington_Level 08/28/2003 0          17.2      
Lake_Washington_Level 08/29/2003 0          17.18     
Lake_Washington_Level 08/30/2003 0          17.17     
Lake_Washington_Level 08/31/2003 0          17.12     
Lake_Washington_Level 09/01/2003 0          17.12     
Lake_Washington_Level 09/02/2003 0          17.09     
Lake_Washington_Level 09/03/2003 0          17.02     
Lake_Washington_Level 09/04/2003 0          17.03     
Lake_Washington_Level 09/05/2003 0          17.02     
Lake_Washington_Level 09/06/2003 0          17.01     
Lake_Washington_Level 09/07/2003 0          16.99     
Lake_Washington_Level 09/08/2003 0          16.99     
Lake_Washington_Level 09/09/2003 0          16.99     
Lake_Washington_Level 09/10/2003 0          16.98     
Lake_Washington_Level 09/11/2003 0          16.97     
Lake_Washington_Level 09/12/2003 0          16.98     
Lake_Washington_Level 09/13/2003 0          16.96     
Lake_Washington_Level 09/14/2003 0          16.96     
Lake_Washington_Level 09/15/2003 0          16.94     
Lake_Washington_Level 09/16/2003 0          16.96     
Lake_Washington_Level 09/17/2003 0          16.99     
Lake_Washington_Level 09/18/2003 0          17        
Lake_Washington_Level 09/19/2003 0          16.98     
Lake_Washington_Level 09/20/2003 0          16.98     
Lake_Washington_Level 09/21/2003 0          16.98     
Lake_Washington_Level 09/22/2003 0          16.97     
Lake_Washington_Level 09/23/2003 0          16.94     
Lake_Washington_Level 09/24/2003 0          16.96     
Lake_Washington_Level 09/25/2003 0          16.97     
Lake_Washington_Level 09/26/2003 0          16.97     
Lake_Washington_Level 09/27/2003 0          16.95     
Lake_Washington_Level 09/28/2003 0          16.97     
Lake_Washington_Level 09/29/2003 0          16.95     
Lake_Washington_Level 09/30/2003 0          16.95     
Lake_Washington_Level 10/01/2003 0          16.95     
Lake_Washington_Level 10/02/2003 0          16.96     
Lake_Washington_Level 10/03/2003 0          16.96     
Lake_Washington_Level 10/04/2003 0          16.91     
Lake_Washington_Level 10/05/2003 0          16.93     
Lake_Washington_Level 10/06/2003 0          16.95     
Lake_Washington_Level 10/07/2003 0          16.97     
Lake_Washington_Level 10/08/2003 0          16.97     
Lake_Washington_Level 10/09/2003 0          17.01     
Lake_Washington_Level 10/10/2003 0          17.01     
Lake_Washington_Level 10/11/2003 0          17.01     
Lake_Washington_Level 10/12/2003 0          17.09     
Lake_Washington_Level 10/13/2003 0          17.1      
Lake_Washington_Level 10/14/2003 0          17.09     
Lake_Washington_Level 10/15/2003 0          17.1      
Lake_Washington_Level 10/16/2003 0          17.21     
Lake_Washington_Level 10/17/2003 0          17.35     
Lake_Washington_Level 10/18/2003 0          17.41     
Lake_Washington_Level 10/19/2003 0          17.42     
Lake_Washington_Level 10/20/2003 0          17.39     
Lake_Washington_Level 10/21/2003 0          17.32     
Lake_Washington_Level 10/22/2003 0          17.33     
Lake_Washington_Level 10/23/2003 0          17.33     
Lake_Washington_Level 10/24/2003 0          17.26     
Lake_Washington_Level 10/25/2003 0          17.33     
Lake_Washington_Level 10/26/2003 0          17.31     
Lake_Washington_Level 10/27/2003 0          17.28     
Lake_Washington_Level 10/28/2003 0          17.26     
Lake_Washington_Level 10/29/2003 0          17.23     
Lake_Washington_Level 10/30/2003 0          17.2      
Lake_Washington_Level 10/31/2003 0          17.205    
Lake_Washington_Level 11/01/2003 0          17.21     
Lake_Washington_Level 11/02/2003 0          17.18     
Lake_Washington_Level 11/03/2003 0          17.18     
Lake_Washington_Level 11/04/2003 0          17.15     
Lake_Washington_Level 11/05/2003 0          17.12     
Lake_Washington_Level 11/06/2003 0          17.12     
Lake_Washington_Level 11/07/2003 0          17.11     
Lake_Washington_Level 11/08/2003 0          17.1      
Lake_Washington_Level 11/09/2003 0          17.08     
Lake_Washington_Level 11/10/2003 0          17.07     
Lake_Washington_Level 11/11/2003 0          17.06     
Lake_Washington_Level 11/12/2003 0          17.02     
Lake_Washington_Level 11/13/2003 0          17.03     
Lake_Washington_Level 11/14/2003 0          17.01     
Lake_Washington_Level 11/15/2003 0          16.99     
Lake_Washington_Level 11/16/2003 0          16.98     
Lake_Washington_Level 11/17/2003 0          16.93     
Lake_Washington_Level 11/18/2003 0          16.95     
Lake_Washington_Level 11/19/2003 0          16.96     
Lake_Washington_Level 11/20/2003 0          16.9      
Lake_Washington_Level 11/21/2003 0          16.89     
Lake_Washington_Level 11/22/2003 0          16.88     
Lake_Washington_Level 11/23/2003 0          16.86     
Lake_Washington_Level 11/24/2003 0          16.88     
Lake_Washington_Level 11/25/2003 0          16.85     
Lake_Washington_Level 11/26/2003 0          16.81     
Lake_Washington_Level 11/27/2003 0          16.8      
Lake_Washington_Level 11/28/2003 0          16.8      
Lake_Washington_Level 11/29/2003 0          16.79     
Lake_Washington_Level 11/30/2003 0          16.76     
Lake_Washington_Level 12/01/2003 0          16.76     
Lake_Washington_Level 12/02/2003 0          16.75     
Lake_Washington_Level 12/03/2003 0          16.75     
Lake_Washington_Level 12/04/2003 0          16.75     
Lake_Washington_Level 12/05/2003 0          16.77     
Lake_Washington_Level 12/06/2003 0          16.75     
Lake_Washington_Level 12/07/2003 0          16.75     
Lake_Washington_Level 12/08/2003 0          16.76     
Lake_Washington_Level 12/09/2003 0          16.77     
Lake_Washington_Level 12/10/2003 0          16.75     
Lake_Washington_Level 12/11/2003 0          16.75     
Lake_Washington_Level 12/12/2003 0          16.77     
Lake_Washington_Level 12/13/2003 0          16.77     
Lake_Washington_Level 12/14/2003 0          16.77     
Lake_Washington_Level 12/15/2003 0          16.77     
Lake_Washington_Level 12/16/2003 0          16.76     
Lake_Washington_Level 12/17/2003 0          16.74     
Lake_Washington_Level 12/18/2003 0          16.77     
Lake_Washington_Level 12/19/2003 0          16.75     
Lake_Washington_Level 12/20/2003 0          16.76     
Lake_Washington_Level 12/21/2003 0          16.75     
Lake_Washington_Level 12/22/2003 0          16.77     
Lake_Washington_Level 12/23/2003 0          16.77     
Lake_Washington_Level 12/24/2003 0          16.75     
Lake_Washington_Level 12/25/2003 0          16.75     
Lake_Washington_Level 12/26/2003 0          16.74     
Lake_Washington_Level 12/27/2003 0          16.78     
Lake_Washington_Level 12/28/2003 0          16.75     
Lake_Washington_Level 12/29/2003 0          16.74     
Lake_Washington_Level 12/30/2003 0          16.78     
Lake_Washington_Level 12/31/2003 0          16.75     
Lake_Washington_Level 01/01/2004 0          16.72     
Lake_Washington_Level 01/02/2004 0          16.77     
Lake_Washington_Level 01/03/2004 0          16.72     
Lake_Washington_Level 01/04/2004 0          16.75     
Lake_Washington_Level 01/05/2004 0          16.77     
Lake_Washington_Level 01/06/2004 0          16.74     
Lake_Washington_Level 01/07/2004 0          16.78     
Lake_Washington_Level 01/08/2004 0          16.76     
Lake_Washington_Level 01/09/2004 0          16.75     
Lake_Washington_Level 01/10/2004 0          16.75     
Lake_Washington_Level 01/11/2004 0          16.75     
Lake_Washington_Level 01/12/2004 0          16.76     
Lake_Washington_Level 01/13/2004 0          16.73     
Lake_Washington_Level 01/14/2004 0          16.75     
Lake_Washington_Level 01/15/2004 0          16.73     
Lake_Washington_Level 01/16/2004 0          16.77     
Lake_Washington_Level 01/17/2004 0          16.77     
Lake_Washington_Level 01/18/2004 0          16.75     
Lake_Washington_Level 01/19/2004 0          16.75     
Lake_Washington_Level 01/20/2004 0          16.79     
Lake_Washington_Level 01/21/2004 0          16.76     
Lake_Washington_Level 01/22/2004 0          16.75     
Lake_Washington_Level 01/23/2004 0          16.79     
Lake_Washington_Level 01/24/2004 0          16.75     
Lake_Washington_Level 01/25/2004 0          16.75     
Lake_Washington_Level 01/26/2004 0          16.75     
Lake_Washington_Level 01/27/2004 0          16.77     
Lake_Washington_Level 01/28/2004 0          16.75     
Lake_Washington_Level 01/29/2004 0          16.76     
Lake_Washington_Level 01/30/2004 0          16.76     
Lake_Washington_Level 01/31/2004 0          16.75     
Lake_Washington_Level 02/01/2004 0          16.75     
Lake_Washington_Level 02/02/2004 0          16.78     
Lake_Washington_Level 02/03/2004 0          16.76     
Lake_Washington_Level 02/04/2004 0          16.77     
Lake_Washington_Level 02/05/2004 0          16.75     
Lake_Washington_Level 02/06/2004 0          16.76     
Lake_Washington_Level 02/07/2004 0          16.75     
Lake_Washington_Level 02/08/2004 0          16.76     
Lake_Washington_Level 02/09/2004 0          16.76     
Lake_Washington_Level 02/10/2004 0          16.75     
Lake_Washington_Level 02/11/2004 0          16.76     
Lake_Washington_Level 02/12/2004 0          16.73     
Lake_Washington_Level 02/13/2004 0          16.77     
Lake_Washington_Level 02/14/2004 0          16.8      
Lake_Washington_Level 02/15/2004 0          16.85     
Lake_Washington_Level 02/16/2004 0          16.96     
Lake_Washington_Level 02/17/2004 0          16.99     
Lake_Washington_Level 02/18/2004 0          17.03     
Lake_Washington_Level 02/19/2004 0          17.03     
Lake_Washington_Level 02/20/2004 0          17.05     
Lake_Washington_Level 02/21/2004 0          17.1      
Lake_Washington_Level 02/22/2004 0          17.15     
Lake_Washington_Level 02/23/2004 0          17.2      
Lake_Washington_Level 02/24/2004 0          17.16     
Lake_Washington_Level 02/25/2004 0          17.19     
Lake_Washington_Level 02/26/2004 0          17.22     
Lake_Washington_Level 02/27/2004 0          17.27     
Lake_Washington_Level 02/28/2004 0          17.26     
Lake_Washington_Level 02/29/2004 0          17.29     
Lake_Washington_Level 03/01/2004 0          17.32     
Lake_Washington_Level 03/02/2004 0          17.35     
Lake_Washington_Level 03/03/2004 0          17.37     
Lake_Washington_Level 03/04/2004 0          17.36     
Lake_Washington_Level 03/05/2004 0          17.39     
Lake_Washington_Level 03/06/2004 0          17.41     
Lake_Washington_Level 03/07/2004 0          17.44     
Lake_Washington_Level 03/08/2004 0          17.47     
Lake_Washington_Level 03/09/2004 0          17.51     
Lake_Washington_Level 03/10/2004 0          17.52     
Lake_Washington_Level 03/11/2004 0          17.51     
Lake_Washington_Level 03/12/2004 0          17.57     
Lake_Washington_Level 03/13/2004 0          17.61     
Lake_Washington_Level 03/14/2004 0          17.6      
Lake_Washington_Level 03/15/2004 0          17.63     
Lake_Washington_Level 03/16/2004 0          17.66     
Lake_Washington_Level 03/17/2004 0          17.68     
Lake_Washington_Level 03/18/2004 0          17.71     
Lake_Washington_Level 03/19/2004 0          17.74     
Lake_Washington_Level 03/20/2004 0          17.75     
Lake_Washington_Level 03/21/2004 0          17.77     
Lake_Washington_Level 03/22/2004 0          17.8      
Lake_Washington_Level 03/23/2004 0          17.82     
Lake_Washington_Level 03/24/2004 0          17.85     
Lake_Washington_Level 03/25/2004 0          17.88     
Lake_Washington_Level 03/26/2004 0          17.9      
Lake_Washington_Level 03/27/2004 0          17.9      
Lake_Washington_Level 03/28/2004 0          17.95     
Lake_Washington_Level 03/29/2004 0          17.98     
Lake_Washington_Level 03/30/2004 0          18.05     
Lake_Washington_Level 03/31/2004 0          18.04     
Lake_Washington_Level 04/01/2004 0          18.05     
Lake_Washington_Level 04/02/2004 0          18.07     
Lake_Washington_Level 04/03/2004 0          18.08     
Lake_Washington_Level 04/04/2004 0          18.11     
Lake_Washington_Level 04/05/2004 0          18.12     
Lake_Washington_Level 04/06/2004 0          18.15     
Lake_Washington_Level 04/07/2004 0          18.19     
Lake_Washington_Level 04/08/2004 0          18.26     
Lake_Washington_Level 04/09/2004 0          18.29     
Lake_Washington_Level 04/10/2004 0          18.34     
Lake_Washington_Level 04/11/2004 0          18.38     
Lake_Washington_Level 04/12/2004 0          18.43     
Lake_Washington_Level 04/13/2004 0          18.45     
Lake_Washington_Level 04/14/2004 0          18.5      
Lake_Washington_Level 04/15/2004 0          18.44     
Lake_Washington_Level 04/16/2004 0          18.46     
Lake_Washington_Level 04/17/2004 0          18.51     
Lake_Washington_Level 04/18/2004 0          18.54     
Lake_Washington_Level 04/19/2004 0          18.57     
Lake_Washington_Level 04/20/2004 0          18.61     
Lake_Washington_Level 04/21/2004 0          18.62     
Lake_Washington_Level 04/22/2004 0          18.67     
Lake_Washington_Level 04/23/2004 0          18.64     
Lake_Washington_Level 04/24/2004 0          18.7      
Lake_Washington_Level 04/25/2004 0          18.72     
Lake_Washington_Level 04/26/2004 0          18.72     
Lake_Washington_Level 04/27/2004 0          18.74     
Lake_Washington_Level 04/28/2004 0          18.74     
Lake_Washington_Level 04/29/2004 0          18.7      
Lake_Washington_Level 04/30/2004 0          18.67     
Lake_Washington_Level 05/01/2004 0          18.67     
Lake_Washington_Level 05/02/2004 0          18.67     
Lake_Washington_Level 05/03/2004 0          18.67     
Lake_Washington_Level 05/04/2004 0          18.66     
Lake_Washington_Level 05/05/2004 0          18.67     
Lake_Washington_Level 05/06/2004 0          18.67     
Lake_Washington_Level 05/07/2004 0          18.66     
Lake_Washington_Level 05/08/2004 0          18.68     
Lake_Washington_Level 05/09/2004 0          18.7      
Lake_Washington_Level 05/10/2004 0          18.7      
Lake_Washington_Level 05/11/2004 0          18.7      
Lake_Washington_Level 05/12/2004 0          18.69     
Lake_Washington_Level 05/13/2004 0          18.68     
Lake_Washington_Level 05/14/2004 0          18.7      
Lake_Washington_Level 05/15/2004 0          18.68     
Lake_Washington_Level 05/16/2004 0          18.67     
Lake_Washington_Level 05/17/2004 0          18.67     
Lake_Washington_Level 05/18/2004 0          18.67     
Lake_Washington_Level 05/19/2004 0          18.67     
Lake_Washington_Level 05/20/2004 0          18.69     
Lake_Washington_Level 05/21/2004 0          18.66     
Lake_Washington_Level 05/22/2004 0          18.66     
Lake_Washington_Level 05/23/2004 0          18.68     
Lake_Washington_Level 05/24/2004 0          18.69     
Lake_Washington_Level 05/25/2004 0          18.66     
Lake_Washington_Level 05/26/2004 0          18.68     
Lake_Washington_Level 05/27/2004 0          18.65     
Lake_Washington_Level 05/28/2004 0          18.59     
Lake_Washington_Level 05/29/2004 0          18.69     
Lake_Washington_Level 05/30/2004 0          18.67     
Lake_Washington_Level 05/31/2004 0          18.69     
Lake_Washington_Level 06/01/2004 0          18.68     
Lake_Washington_Level 06/02/2004 0          18.68     
Lake_Washington_Level 06/03/2004 0          18.67     
Lake_Washington_Level 06/04/2004 0          18.69     
Lake_Washington_Level 06/05/2004 0          18.69     
Lake_Washington_Level 06/06/2004 0          18.67     
Lake_Washington_Level 06/07/2004 0          18.69     
Lake_Washington_Level 06/08/2004 0          18.66     
Lake_Washington_Level 06/09/2004 0          18.67     
Lake_Washington_Level 06/10/2004 0          18.68     
Lake_Washington_Level 06/11/2004 0          18.68     
Lake_Washington_Level 06/12/2004 0          18.67     
Lake_Washington_Level 06/13/2004 0          18.69     
Lake_Washington_Level 06/14/2004 0          18.69     
Lake_Washington_Level 06/15/2004 0          18.67     
Lake_Washington_Level 06/16/2004 0          18.67     
Lake_Washington_Level 06/17/2004 0          18.65     
Lake_Washington_Level 06/18/2004 0          18.6      
Lake_Washington_Level 06/19/2004 0          18.64     
Lake_Washington_Level 06/20/2004 0          18.63     
Lake_Washington_Level 06/21/2004 0          18.6      
Lake_Washington_Level 06/22/2004 0          18.58     
Lake_Washington_Level 06/23/2004 0          18.58     
Lake_Washington_Level 06/24/2004 0          18.54     
Lake_Washington_Level 06/25/2004 0          18.5      
Lake_Washington_Level 06/26/2004 0          18.5      
Lake_Washington_Level 06/27/2004 0          18.47     
Lake_Washington_Level 06/28/2004 0          18.42     
Lake_Washington_Level 06/29/2004 0          18.42     
Lake_Washington_Level 06/30/2004 0          18.41     
Lake_Washington_Level 07/01/2004 0          18.39     
Lake_Washington_Level 07/02/2004 0          18.38     
Lake_Washington_Level 07/03/2004 0          18.36     
Lake_Washington_Level 07/04/2004 0          18.34     
Lake_Washington_Level 07/05/2004 0          18.34     
Lake_Washington_Level 07/06/2004 0          18.32     
Lake_Washington_Level 07/07/2004 0          18.32     
Lake_Washington_Level 07/08/2004 0          18.31     
Lake_Washington_Level 07/09/2004 0          18.29     
Lake_Washington_Level 07/10/2004 0          18.25     
Lake_Washington_Level 07/11/2004 0          18.23     
Lake_Washington_Level 07/12/2004 0          18.2      
Lake_Washington_Level 07/13/2004 0          18.19     
Lake_Washington_Level 07/14/2004 0          18.17     
Lake_Washington_Level 07/15/2004 0          18.14     
Lake_Washington_Level 07/16/2004 0          18.12     
Lake_Washington_Level 07/17/2004 0          18.09     
Lake_Washington_Level 07/18/2004 0          18.07     
Lake_Washington_Level 07/19/2004 0          18.04     
Lake_Washington_Level 07/20/2004 0          18.02     
Lake_Washington_Level 07/21/2004 0          18        
Lake_Washington_Level 07/22/2004 0          17.97     
Lake_Washington_Level 07/23/2004 0          17.95     
Lake_Washington_Level 07/24/2004 0          17.93     
Lake_Washington_Level 07/25/2004 0          17.92     
Lake_Washington_Level 07/26/2004 0          17.89     
Lake_Washington_Level 07/27/2004 0          17.87     
Lake_Washington_Level 07/28/2004 0          17.83     
Lake_Washington_Level 07/29/2004 0          17.8      
Lake_Washington_Level 07/30/2004 0          17.8      
Lake_Washington_Level 07/31/2004 0          17.77     
Lake_Washington_Level 08/01/2004 0          17.75     
Lake_Washington_Level 08/02/2004 0          17.74     
Lake_Washington_Level 08/03/2004 0          17.72     
Lake_Washington_Level 08/04/2004 0          17.69     
Lake_Washington_Level 08/05/2004 0          17.67     
Lake_Washington_Level 08/06/2004 0          17.63     
Lake_Washington_Level 08/07/2004 0          17.71     
Lake_Washington_Level 08/08/2004 0          17.68     
Lake_Washington_Level 08/09/2004 0          17.64     
Lake_Washington_Level 08/10/2004 0          17.63     
Lake_Washington_Level 08/11/2004 0          17.61     
Lake_Washington_Level 08/12/2004 0          17.6      
Lake_Washington_Level 08/13/2004 0          17.55     
Lake_Washington_Level 08/14/2004 0          17.55     
Lake_Washington_Level 08/15/2004 0          17.53     
Lake_Washington_Level 08/16/2004 0          17.5      
Lake_Washington_Level 08/17/2004 0          17.49     
Lake_Washington_Level 08/18/2004 0          17.45     
Lake_Washington_Level 08/19/2004 0          17.44     
Lake_Washington_Level 08/20/2004 0          17.4      
Lake_Washington_Level 08/21/2004 0          17.39     
Lake_Washington_Level 08/22/2004 0          17.49     
Lake_Washington_Level 08/23/2004 0          17.41     
Lake_Washington_Level 08/24/2004 0          17.4      
Lake_Washington_Level 08/25/2004 0          17.49     
Lake_Washington_Level 08/26/2004 0          17.54     
Lake_Washington_Level 08/27/2004 0          17.57     
Lake_Washington_Level 08/28/2004 0          17.61     
Lake_Washington_Level 08/29/2004 0          17.61     
Lake_Washington_Level 08/30/2004 0          17.6      
Lake_Washington_Level 08/31/2004 0          17.6      
Lake_Washington_Level 09/01/2004 0          17.61     
Lake_Washington_Level 09/02/2004 0          17.6      
Lake_Washington_Level 09/03/2004 0          17.58     
Lake_Washington_Level 09/04/2004 0          17.55     
Lake_Washington_Level 09/05/2004 0          17.57     
Lake_Washington_Level 09/06/2004 0          17.48     
Lake_Washington_Level 09/07/2004 0          17.44     
Lake_Washington_Level 09/08/2004 0          17.43     
Lake_Washington_Level 09/09/2004 0          17.39     
Lake_Washington_Level 09/10/2004 0          17.36     
Lake_Washington_Level 09/11/2004 0          17.42     
Lake_Washington_Level 09/12/2004 0          17.43     
Lake_Washington_Level 09/13/2004 0          17.49     
Lake_Washington_Level 09/14/2004 0          17.51     
Lake_Washington_Level 09/15/2004 0          17.54     
Lake_Washington_Level 09/16/2004 0          17.52     
Lake_Washington_Level 09/17/2004 0          17.58     
Lake_Washington_Level 09/18/2004 0          17.63     
Lake_Washington_Level 09/19/2004 0          17.71     
Lake_Washington_Level 09/20/2004 0          17.7      
Lake_Washington_Level 09/21/2004 0          17.74     
Lake_Washington_Level 09/22/2004 0          17.75     
Lake_Washington_Level 09/23/2004 0          17.82     
Lake_Washington_Level 09/24/2004 0          17.7      
Lake_Washington_Level 09/25/2004 0          17.71     
Lake_Washington_Level 09/26/2004 0          17.71     
Lake_Washington_Level 09/27/2004 0          17.71     
Lake_Washington_Level 09/28/2004 0          17.69     
Lake_Washington_Level 09/29/2004 0          17.63     
Lake_Washington_Level 09/30/2004 0          17.66     
Lake_Washington_Level 10/01/2004 0          17.64     
Lake_Washington_Level 10/02/2004 0          17.62     
Lake_Washington_Level 10/03/2004 0          17.59     
Lake_Washington_Level 10/04/2004 0          17.59     
Lake_Washington_Level 10/05/2004 0          17.59     
Lake_Washington_Level 10/06/2004 0          17.59     
Lake_Washington_Level 10/07/2004 0          17.57     
Lake_Washington_Level 10/08/2004 0          17.51     
Lake_Washington_Level 10/09/2004 0          17.54     
Lake_Washington_Level 10/10/2004 0          17.5      
Lake_Washington_Level 10/11/2004 0          17.5      
Lake_Washington_Level 10/12/2004 0          17.47     
Lake_Washington_Level 10/13/2004 0          17.47     
Lake_Washington_Level 10/14/2004 0          17.48     
Lake_Washington_Level 10/15/2004 0          17.47     
Lake_Washington_Level 10/16/2004 0          17.41     
Lake_Washington_Level 10/17/2004 0          17.42     
Lake_Washington_Level 10/18/2004 0          17.39     
Lake_Washington_Level 10/19/2004 0          17.33     
Lake_Washington_Level 10/20/2004 0          17.37     
Lake_Washington_Level 10/21/2004 0          17.35     
Lake_Washington_Level 10/22/2004 0          17.32     
Lake_Washington_Level 10/23/2004 0          17.31     
Lake_Washington_Level 10/24/2004 0          17.3      
Lake_Washington_Level 10/25/2004 0          17.31     
Lake_Washington_Level 10/26/2004 0          17.29     
Lake_Washington_Level 10/27/2004 0          17.25     
Lake_Washington_Level 10/28/2004 0          17.26     
Lake_Washington_Level 10/29/2004 0          17.25     
Lake_Washington_Level 10/30/2004 0          17.2      
Lake_Washington_Level 10/31/2004 0          17.21     
Lake_Washington_Level 11/01/2004 0          17.2      
Lake_Washington_Level 11/02/2004 0          17.21     
Lake_Washington_Level 11/03/2004 0          17.16     
Lake_Washington_Level 11/04/2004 0          17.13     
Lake_Washington_Level 11/05/2004 0          17.14     
Lake_Washington_Level 11/06/2004 0          17.11     
Lake_Washington_Level 11/07/2004 0          17.1      
Lake_Washington_Level 11/08/2004 0          17.09     
Lake_Washington_Level 11/09/2004 0          17.07     
Lake_Washington_Level 11/10/2004 0          17.06     
Lake_Washington_Level 11/11/2004 0          17.03     
Lake_Washington_Level 11/12/2004 0          17.04     
Lake_Washington_Level 11/13/2004 0          17.03     
Lake_Washington_Level 11/14/2004 0          16.99     
Lake_Washington_Level 11/15/2004 0          16.97     
Lake_Washington_Level 11/16/2004 0          16.97     
Lake_Washington_Level 11/17/2004 0          16.95     
Lake_Washington_Level 11/18/2004 0          16.93     
Lake_Washington_Level 11/19/2004 0          16.89     
Lake_Washington_Level 11/20/2004 0          16.91     
Lake_Washington_Level 11/21/2004 0          16.9      
Lake_Washington_Level 11/22/2004 0          16.88     
Lake_Washington_Level 11/23/2004 0          16.87     
Lake_Washington_Level 11/24/2004 0          16.83     
Lake_Washington_Level 11/25/2004 0          16.84     
Lake_Washington_Level 11/26/2004 0          16.84     
Lake_Washington_Level 11/27/2004 0          16.79     
Lake_Washington_Level 11/28/2004 0          16.81     
Lake_Washington_Level 11/29/2004 0          16.79     
Lake_Washington_Level 11/30/2004 0          16.77     
Lake_Washington_Level 12/01/2004 0          16.76     
Lake_Washington_Level 12/02/2004 0          16.78     
Lake_Washington_Level 12/03/2004 0          16.74     
Lake_Washington_Level 12/04/2004 0          16.76     
Lake_Washington_Level 12/05/2004 0          16.79     
Lake_Washington_Level 12/06/2004 0          16.74     
Lake_Washington_Level 12/07/2004 0          16.76     
Lake_Washington_Level 12/08/2004 0          16.75     
Lake_Washington_Level 12/09/2004 0          16.71     
Lake_Washington_Level 12/10/2004 0          16.79     
Lake_Washington_Level 12/11/2004 0          16.75     
Lake_Washington_Level 12/12/2004 0          16.75     
Lake_Washington_Level 12/13/2004 0          16.79     
Lake_Washington_Level 12/14/2004 0          16.75     
Lake_Washington_Level 12/15/2004 0          16.77     
Lake_Washington_Level 12/16/2004 0          16.77     
Lake_Washington_Level 12/17/2004 0          16.75     
Lake_Washington_Level 12/18/2004 0          16.76     
Lake_Washington_Level 12/19/2004 0          16.74     
Lake_Washington_Level 12/20/2004 0          16.73     
Lake_Washington_Level 12/21/2004 0          16.77     
Lake_Washington_Level 12/22/2004 0          16.75     
Lake_Washington_Level 12/23/2004 0          16.75     
Lake_Washington_Level 12/24/2004 0          16.76     
Lake_Washington_Level 12/25/2004 0          16.77     
Lake_Washington_Level 12/26/2004 0          16.77     
Lake_Washington_Level 12/27/2004 0          16.75     
Lake_Washington_Level 12/28/2004 0          16.77     
Lake_Washington_Level 12/29/2004 0          16.77     
Lake_Washington_Level 12/30/2004 0          16.73     
Lake_Washington_Level 12/31/2004 0          16.74     
Lake_Washington_Level 01/01/2005 0          16.75     
Lake_Washington_Level 01/02/2005 0          16.74     
Lake_Washington_Level 01/03/2005 0          16.74     
Lake_Washington_Level 01/04/2005 0          16.76     
Lake_Washington_Level 01/05/2005 0          16.77     
Lake_Washington_Level 01/06/2005 0          16.76     
Lake_Washington_Level 01/07/2005 0          16.76     
Lake_Washington_Level 01/08/2005 0          16.76     
Lake_Washington_Level 01/09/2005 0          16.76     
Lake_Washington_Level 01/10/2005 0          16.77     
Lake_Washington_Level 01/11/2005 0          16.74     
Lake_Washington_Level 01/12/2005 0          16.79     
Lake_Washington_Level 01/13/2005 0          16.75     
Lake_Washington_Level 01/14/2005 0          16.76     
Lake_Washington_Level 01/15/2005 0          16.75     
Lake_Washington_Level 01/16/2005 0          16.74     
Lake_Washington_Level 01/17/2005 0          16.75     
Lake_Washington_Level 01/18/2005 0          16.73     
Lake_Washington_Level 01/19/2005 0          16.72     
Lake_Washington_Level 01/20/2005 0          16.79     
Lake_Washington_Level 01/21/2005 0          16.76     
Lake_Washington_Level 01/22/2005 0          16.75     
Lake_Washington_Level 01/23/2005 0          16.76     
Lake_Washington_Level 01/24/2005 0          16.76     
Lake_Washington_Level 01/25/2005 0          16.77     
Lake_Washington_Level 01/26/2005 0          16.76     
Lake_Washington_Level 01/27/2005 0          16.75     
Lake_Washington_Level 01/28/2005 0          16.75     
Lake_Washington_Level 01/29/2005 0          16.75     
Lake_Washington_Level 01/30/2005 0          16.75     
Lake_Washington_Level 01/31/2005 0          16.74     
Lake_Washington_Level 02/01/2005 0          16.78     
Lake_Washington_Level 02/02/2005 0          16.75     
Lake_Washington_Level 02/03/2005 0          16.75     
Lake_Washington_Level 02/04/2005 0          16.75     
Lake_Washington_Level 02/05/2005 0          16.75     
Lake_Washington_Level 02/06/2005 0          16.77     
Lake_Washington_Level 02/07/2005 0          16.75     
Lake_Washington_Level 02/08/2005 0          16.74     
Lake_Washington_Level 02/09/2005 0          16.76     
Lake_Washington_Level 02/10/2005 0          16.77     
Lake_Washington_Level 02/11/2005 0          16.77     
Lake_Washington_Level 02/12/2005 0          16.76     
Lake_Washington_Level 02/13/2005 0          16.77     
Lake_Washington_Level 02/14/2005 0          16.76     
Lake_Washington_Level 02/15/2005 0          16.77     
Lake_Washington_Level 02/16/2005 0          16.8      
Lake_Washington_Level 02/17/2005 0          16.85     
Lake_Washington_Level 02/18/2005 0          16.88     
Lake_Washington_Level 02/19/2005 0          16.92     
Lake_Washington_Level 02/20/2005 0          16.96     
Lake_Washington_Level 02/21/2005 0          17.01     
Lake_Washington_Level 02/22/2005 0          17.04     
Lake_Washington_Level 02/23/2005 0          17.07     
Lake_Washington_Level 02/24/2005 0          17.1      
Lake_Washington_Level 02/25/2005 0          17.12     
Lake_Washington_Level 02/26/2005 0          17.13     
Lake_Washington_Level 02/27/2005 0          17.14     
Lake_Washington_Level 02/28/2005 0          17.18     
Lake_Washington_Level 03/01/2005 0          17.21     
Lake_Washington_Level 03/02/2005 0          17.28     
Lake_Washington_Level 03/03/2005 0          17.26     
Lake_Washington_Level 03/04/2005 0          17.31     
Lake_Washington_Level 03/05/2005 0          17.31     
Lake_Washington_Level 03/06/2005 0          17.31     
Lake_Washington_Level 03/07/2005 0          17.34     
Lake_Washington_Level 03/08/2005 0          17.42     
Lake_Washington_Level 03/09/2005 0          17.42     
Lake_Washington_Level 03/10/2005 0          17.43     
Lake_Washington_Level 03/11/2005 0          17.45     
Lake_Washington_Level 03/12/2005 0          17.48     
Lake_Washington_Level 03/13/2005 0          17.48     
Lake_Washington_Level 03/14/2005 0          17.51     
Lake_Washington_Level 03/15/2005 0          17.53     
Lake_Washington_Level 03/16/2005 0          17.54     
Lake_Washington_Level 03/17/2005 0          17.58     
Lake_Washington_Level 03/18/2005 0          17.57     
Lake_Washington_Level 03/19/2005 0          17.61     
Lake_Washington_Level 03/20/2005 0          17.69     
Lake_Washington_Level 03/21/2005 0          17.74     
Lake_Washington_Level 03/22/2005 0          17.74     
Lake_Washington_Level 03/23/2005 0          17.75     
Lake_Washington_Level 03/24/2005 0          17.77     
Lake_Washington_Level 03/25/2005 0          17.77     
Lake_Washington_Level 03/26/2005 0          17.82     
Lake_Washington_Level 03/27/2005 0          18.13     
Lake_Washington_Level 03/28/2005 0          18.29     
Lake_Washington_Level 03/29/2005 0          18.36     
Lake_Washington_Level 03/30/2005 0          18.49     
Lake_Washington_Level 03/31/2005 0          18.3      
Lake_Washington_Level 04/01/2005 0          18.35     
Lake_Washington_Level 04/02/2005 0          18.42     
Lake_Washington_Level 04/03/2005 0          18.42     
Lake_Washington_Level 04/04/2005 0          18.4      
Lake_Washington_Level 04/05/2005 0          18.48     
Lake_Washington_Level 04/06/2005 0          18.36     
Lake_Washington_Level 04/07/2005 0          18.38     
Lake_Washington_Level 04/08/2005 0          18.44     
Lake_Washington_Level 04/09/2005 0          18.49     
Lake_Washington_Level 04/10/2005 0          18.49     
Lake_Washington_Level 04/11/2005 0          18.49     
Lake_Washington_Level 04/12/2005 0          18.47     
Lake_Washington_Level 04/13/2005 0          18.47     
Lake_Washington_Level 04/14/2005 0          18.54     
Lake_Washington_Level 04/15/2005 0          18.53     
Lake_Washington_Level 04/16/2005 0          18.64     
Lake_Washington_Level 04/17/2005 0          18.6      
Lake_Washington_Level 04/18/2005 0          18.64     
Lake_Washington_Level 04/19/2005 0          18.64     
Lake_Washington_Level 04/20/2005 0          18.64     
Lake_Washington_Level 04/21/2005 0          18.59     
Lake_Washington_Level 04/22/2005 0          18.6      
Lake_Washington_Level 04/23/2005 0          18.63     
Lake_Washington_Level 04/24/2005 0          18.63     
Lake_Washington_Level 04/25/2005 0          18.64     
Lake_Washington_Level 04/26/2005 0          18.61     
Lake_Washington_Level 04/27/2005 0          18.6      
Lake_Washington_Level 04/28/2005 0          18.62     
Lake_Washington_Level 04/29/2005 0          18.64     
Lake_Washington_Level 04/30/2005 0          18.62     
Lake_Washington_Level 05/01/2005 0          18.6      
Lake_Washington_Level 05/02/2005 0          18.63     
Lake_Washington_Level 05/03/2005 0          18.62     
Lake_Washington_Level 05/04/2005 0          18.63     
Lake_Washington_Level 05/05/2005 0          18.62     
Lake_Washington_Level 05/06/2005 0          18.6      
Lake_Washington_Level 05/07/2005 0          18.6      
Lake_Washington_Level 05/08/2005 0          18.61     
Lake_Washington_Level 05/09/2005 0          18.62     
Lake_Washington_Level 05/10/2005 0          18.65     
Lake_Washington_Level 05/11/2005 0          18.63     
Lake_Washington_Level 05/12/2005 0          18.64     
Lake_Washington_Level 05/13/2005 0          18.64     
Lake_Washington_Level 05/14/2005 0          18.64     
Lake_Washington_Level 05/15/2005 0          18.63     
Lake_Washington_Level 05/16/2005 0          18.64     
Lake_Washington_Level 05/17/2005 0          18.69     
Lake_Washington_Level 05/18/2005 0          18.71     
Lake_Washington_Level 05/19/2005 0          18.62     
Lake_Washington_Level 05/20/2005 0          18.63     
Lake_Washington_Level 05/21/2005 0          18.66     
Lake_Washington_Level 05/22/2005 0          18.68     
Lake_Washington_Level 05/23/2005 0          18.68     
Lake_Washington_Level 05/24/2005 0          18.62     
Lake_Washington_Level 05/25/2005 0          18.63     
Lake_Washington_Level 05/26/2005 0          18.66     
Lake_Washington_Level 05/27/2005 0          18.65     
Lake_Washington_Level 05/28/2005 0          18.69     
Lake_Washington_Level 05/29/2005 0          18.68     
Lake_Washington_Level 05/30/2005 0          18.67     
Lake_Washington_Level 05/31/2005 0          18.69     
Lake_Washington_Level 06/01/2005 0          18.64     
Lake_Washington_Level 06/02/2005 0          18.67     
Lake_Washington_Level 06/03/2005 0          18.66     
Lake_Washington_Level 06/04/2005 0          18.65     
Lake_Washington_Level 06/05/2005 0          18.68     
Lake_Washington_Level 06/06/2005 0          18.65     
Lake_Washington_Level 06/07/2005 0          18.68     
Lake_Washington_Level 06/08/2005 0          18.67     
Lake_Washington_Level 06/09/2005 0          18.67     
Lake_Washington_Level 06/10/2005 0          18.68     
Lake_Washington_Level 06/11/2005 0          18.66     
Lake_Washington_Level 06/12/2005 0          18.68     
Lake_Washington_Level 06/13/2005 0          18.67     
Lake_Washington_Level 06/14/2005 0          18.64     
Lake_Washington_Level 06/15/2005 0          18.64     
Lake_Washington_Level 06/16/2005 0          18.64     
Lake_Washington_Level 06/17/2005 0          18.63     
Lake_Washington_Level 06/18/2005 0          18.64     
Lake_Washington_Level 06/19/2005 0          18.6      
Lake_Washington_Level 06/20/2005 0          18.55     
Lake_Washington_Level 06/21/2005 0          18.53     
Lake_Washington_Level 06/22/2005 0          18.56     
Lake_Washington_Level 06/23/2005 0          18.56     
Lake_Washington_Level 06/24/2005 0          18.57     
Lake_Washington_Level 06/25/2005 0          18.55     
Lake_Washington_Level 06/26/2005 0          18.53     
Lake_Washington_Level 06/27/2005 0          18.51     
Lake_Washington_Level 06/28/2005 0          18.5      
Lake_Washington_Level 06/29/2005 0          18.47     
Lake_Washington_Level 06/30/2005 0          18.44     
Lake_Washington_Level 07/01/2005 0          18.5      
Lake_Washington_Level 07/02/2005 0          18.36     
Lake_Washington_Level 07/03/2005 0          18.36     
Lake_Washington_Level 07/04/2005 0          18.33     
Lake_Washington_Level 07/05/2005 0          18.32     
Lake_Washington_Level 07/06/2005 0          18.34     
Lake_Washington_Level 07/07/2005 0          18.34     
Lake_Washington_Level 07/08/2005 0          18.35     
Lake_Washington_Level 07/09/2005 0          18.35     
Lake_Washington_Level 07/10/2005 0          18.32     
Lake_Washington_Level 07/11/2005 0          18.29     
Lake_Washington_Level 07/12/2005 0          18.32     
Lake_Washington_Level 07/13/2005 0          18.29     
Lake_Washington_Level 07/14/2005 0          18.28     
Lake_Washington_Level 07/15/2005 0          18.23     
Lake_Washington_Level 07/16/2005 0          18.26     
Lake_Washington_Level 07/17/2005 0          18.23     
Lake_Washington_Level 07/18/2005 0          18.22     
Lake_Washington_Level 07/19/2005 0          18.21     
Lake_Washington_Level 07/20/2005 0          18.17     
Lake_Washington_Level 07/21/2005 0          18.18     
Lake_Washington_Level 07/22/2005 0          18.16     
Lake_Washington_Level 07/23/2005 0          18.15     
Lake_Washington_Level 07/24/2005 0          18.11     
Lake_Washington_Level 07/25/2005 0          18.09     
Lake_Washington_Level 07/26/2005 0          18.05     
Lake_Washington_Level 07/27/2005 0          18.03     
Lake_Washington_Level 07/28/2005 0          18.03     
Lake_Washington_Level 07/29/2005 0          18        
Lake_Washington_Level 07/30/2005 0          18        
Lake_Washington_Level 07/31/2005 0          17.98     
Lake_Washington_Level 08/01/2005 0          17.94     
Lake_Washington_Level 08/02/2005 0          17.91     
Lake_Washington_Level 08/03/2005 0          17.9      
Lake_Washington_Level 08/04/2005 0          17.88     
Lake_Washington_Level 08/05/2005 0          17.85     
Lake_Washington_Level 08/06/2005 0          17.83     
Lake_Washington_Level 08/07/2005 0          17.82     
Lake_Washington_Level 08/08/2005 0          17.77     
Lake_Washington_Level 08/09/2005 0          17.77     
Lake_Washington_Level 08/10/2005 0          17.7      
Lake_Washington_Level 08/11/2005 0          17.7      
Lake_Washington_Level 08/12/2005 0          17.68     
Lake_Washington_Level 08/13/2005 0          17.62     
Lake_Washington_Level 08/14/2005 0          17.61     
Lake_Washington_Level 08/15/2005 0          17.58     
Lake_Washington_Level 08/16/2005 0          17.57     
Lake_Washington_Level 08/17/2005 0          17.54     
Lake_Washington_Level 08/18/2005 0          17.5      
Lake_Washington_Level 08/19/2005 0          17.5      
Lake_Washington_Level 08/20/2005 0          17.47     
Lake_Washington_Level 08/21/2005 0          17.45     
Lake_Washington_Level 08/22/2005 0          17.42     
Lake_Washington_Level 08/23/2005 0          17.41     
Lake_Washington_Level 08/24/2005 0          17.36     
Lake_Washington_Level 08/25/2005 0          17.35     
Lake_Washington_Level 08/26/2005 0          17.31     
Lake_Washington_Level 08/27/2005 0          17.26     
Lake_Washington_Level 08/28/2005 0          17.26     
Lake_Washington_Level 08/29/2005 0          17.25     
Lake_Washington_Level 08/30/2005 0          17.24     
Lake_Washington_Level 08/31/2005 0          17.2      
Lake_Washington_Level 09/01/2005 0          17.19     
Lake_Washington_Level 09/02/2005 0          17.19     
Lake_Washington_Level 09/03/2005 0          17.17     
Lake_Washington_Level 09/04/2005 0          17.15     
Lake_Washington_Level 09/05/2005 0          17.15     
Lake_Washington_Level 09/06/2005 0          17.15     
Lake_Washington_Level 09/07/2005 0          17.14     
Lake_Washington_Level 09/08/2005 0          17.09     
Lake_Washington_Level 09/09/2005 0          17.1      
Lake_Washington_Level 09/10/2005 0          17.09     
Lake_Washington_Level 09/11/2005 0          17.15     
Lake_Washington_Level 09/12/2005 0          17.17     
Lake_Washington_Level 09/13/2005 0          17.14     
Lake_Washington_Level 09/14/2005 0          17.17     
Lake_Washington_Level 09/15/2005 0          17.14     
Lake_Washington_Level 09/16/2005 0          17.15     
Lake_Washington_Level 09/17/2005 0          17.18     
Lake_Washington_Level 09/18/2005 0          17.13     
Lake_Washington_Level 09/19/2005 0          17.15     
Lake_Washington_Level 09/20/2005 0          17.13     
Lake_Washington_Level 09/21/2005 0          17.14     
Lake_Washington_Level 09/22/2005 0          17.11     
Lake_Washington_Level 09/23/2005 0          17.14     
Lake_Washington_Level 09/24/2005 0          17.1      
Lake_Washington_Level 09/25/2005 0          17.07     
Lake_Washington_Level 09/26/2005 0          17.08     
Lake_Washington_Level 09/27/2005 0          17.08     
Lake_Washington_Level 09/28/2005 0          17.08     
Lake_Washington_Level 09/29/2005 0          17.09     
Lake_Washington_Level 09/30/2005 0          17.12     
Lake_Washington_Level 10/01/2005 0          17.15     
Lake_Washington_Level 10/02/2005 0          17.23     
Lake_Washington_Level 10/03/2005 0          17.27     
Lake_Washington_Level 10/04/2005 0          17.28     
Lake_Washington_Level 10/05/2005 0          17.3      
Lake_Washington_Level 10/06/2005 0          17.29     
Lake_Washington_Level 10/07/2005 0          17.33     
Lake_Washington_Level 10/08/2005 0          17.33     
Lake_Washington_Level 10/09/2005 0          17.34     
Lake_Washington_Level 10/10/2005 0          17.32     
Lake_Washington_Level 10/11/2005 0          17.3      
Lake_Washington_Level 10/12/2005 0          17.3      
Lake_Washington_Level 10/13/2005 0          17.31     
Lake_Washington_Level 10/14/2005 0          17.27     
Lake_Washington_Level 10/15/2005 0          17.32     
Lake_Washington_Level 10/16/2005 0          17.33     
Lake_Washington_Level 10/17/2005 0          17.33     
Lake_Washington_Level 10/18/2005 0          17.3      
Lake_Washington_Level 10/19/2005 0          17.32     
Lake_Washington_Level 10/20/2005 0          17.33     
Lake_Washington_Level 10/21/2005 0          17.32     
Lake_Washington_Level 10/22/2005 0          17.32     
Lake_Washington_Level 10/23/2005 0          17.32     
Lake_Washington_Level 10/24/2005 0          17.35     
Lake_Washington_Level 10/25/2005 0          17.38     
Lake_Washington_Level 10/26/2005 0          17.36     
Lake_Washington_Level 10/27/2005 0          17.38     
Lake_Washington_Level 10/28/2005 0          17.39     
Lake_Washington_Level 10/29/2005 0          17.33     
Lake_Washington_Level 10/30/2005 0          17.34     
Lake_Washington_Level 10/31/2005 0          17.37     
Lake_Washington_Level 11/01/2005 0          17.34     
Lake_Washington_Level 11/02/2005 0          17.16     
Lake_Washington_Level 11/03/2005 0          17.18     
Lake_Washington_Level 11/04/2005 0          17.15     
Lake_Washington_Level 11/05/2005 0          17.12     
Lake_Washington_Level 11/06/2005 0          17.12     
Lake_Washington_Level 11/07/2005 0          17.12     
Lake_Washington_Level 11/08/2005 0          17.08     
Lake_Washington_Level 11/09/2005 0          17.08     
Lake_Washington_Level 11/10/2005 0          17.05     
Lake_Washington_Level 11/11/2005 0          17.04     
Lake_Washington_Level 11/12/2005 0          17.02     
Lake_Washington_Level 11/13/2005 0          17.01     
Lake_Washington_Level 11/14/2005 0          16.99     
Lake_Washington_Level 11/15/2005 0          16.98     
Lake_Washington_Level 11/16/2005 0          16.97     
Lake_Washington_Level 11/17/2005 0          16.96     
Lake_Washington_Level 11/18/2005 0          16.94     
Lake_Washington_Level 11/19/2005 0          16.92     
Lake_Washington_Level 11/20/2005 0          16.93     
Lake_Washington_Level 11/21/2005 0          16.89     
Lake_Washington_Level 11/22/2005 0          16.88     
Lake_Washington_Level 11/23/2005 0          16.86     
Lake_Washington_Level 11/24/2005 0          16.85     
Lake_Washington_Level 11/25/2005 0          16.86     
Lake_Washington_Level 11/26/2005 0          16.81     
Lake_Washington_Level 11/27/2005 0          16.81     
Lake_Washington_Level 11/28/2005 0          16.79     
Lake_Washington_Level 11/29/2005 0          16.79     
Lake_Washington_Level 11/30/2005 0          16.77     
Lake_Washington_Level 12/01/2005 0          16.77     
Lake_Washington_Level 12/02/2005 0          16.75     
Lake_Washington_Level 12/03/2005 0          16.77     
Lake_Washington_Level 12/04/2005 0          16.77     
Lake_Washington_Level 12/05/2005 0          16.75     
Lake_Washington_Level 12/06/2005 0          16.77     
Lake_Washington_Level 12/07/2005 0          16.75     
Lake_Washington_Level 12/08/2005 0          16.76     
Lake_Washington_Level 12/09/2005 0          16.76     
Lake_Washington_Level 12/10/2005 0          16.76     
Lake_Washington_Level 12/11/2005 0          16.76     
Lake_Washington_Level 12/12/2005 0          16.73     
Lake_Washington_Level 12/13/2005 0          16.75     
Lake_Washington_Level 12/14/2005 0          16.76     
Lake_Washington_Level 12/15/2005 0          16.78     
Lake_Washington_Level 12/16/2005 0          16.76     
Lake_Washington_Level 12/17/2005 0          16.74     
Lake_Washington_Level 12/18/2005 0          16.76     
Lake_Washington_Level 12/19/2005 0          16.75     
Lake_Washington_Level 12/20/2005 0          16.76     
Lake_Washington_Level 12/21/2005 0          16.75     
Lake_Washington_Level 12/22/2005 0          16.79     
Lake_Washington_Level 12/23/2005 0          16.74     
Lake_Washington_Level 12/24/2005 0          16.76     
Lake_Washington_Level 12/25/2005 0          16.75     
Lake_Washington_Level 12/26/2005 0          16.75     
Lake_Washington_Level 12/27/2005 0          16.76     
Lake_Washington_Level 12/28/2005 0          16.75     
Lake_Washington_Level 12/29/2005 0          16.75     
Lake_Washington_Level 12/30/2005 0          16.77     
Lake_Washington_Level 12/31/2005 0          16.74     
Lake_Washington_Level 01/01/2006 0          16.75     
Lake_Washington_Level 01/02/2006 0          16.75     
Lake_Washington_Level 01/03/2006 0          16.76     
Lake_Washington_Level 01/04/2006 0          16.75     
Lake_Washington_Level 01/05/2006 0          16.75     
Lake_Washington_Level 01/06/2006 0          16.75     
Lake_Washington_Level 01/07/2006 0          16.76     
Lake_Washington_Level 01/08/2006 0          16.73     
Lake_Washington_Level 01/09/2006 0          16.76     
Lake_Washington_Level 01/10/2006 0          16.76     
Lake_Washington_Level 01/11/2006 0          16.73     
Lake_Washington_Level 01/12/2006 0          16.75     
Lake_Washington_Level 01/13/2006 0          16.75     
Lake_Washington_Level 01/14/2006 0          16.75     
Lake_Washington_Level 01/15/2006 0          16.73     
Lake_Washington_Level 01/16/2006 0          16.74     
Lake_Washington_Level 01/17/2006 0          16.75     
Lake_Washington_Level 01/18/2006 0          16.74     
Lake_Washington_Level 01/19/2006 0          16.75     
Lake_Washington_Level 01/20/2006 0          16.75     
Lake_Washington_Level 01/21/2006 0          16.74     
Lake_Washington_Level 01/22/2006 0          16.76     
Lake_Washington_Level 01/23/2006 0          16.75     
Lake_Washington_Level 01/24/2006 0          16.76     
Lake_Washington_Level 01/25/2006 0          16.74     
Lake_Washington_Level 01/26/2006 0          16.74     
Lake_Washington_Level 01/27/2006 0          16.75     
Lake_Washington_Level 01/28/2006 0          16.74     
Lake_Washington_Level 01/29/2006 0          16.76     
Lake_Washington_Level 01/30/2006 0          16.8      
Lake_Washington_Level 01/31/2006 0          16.74     
Lake_Washington_Level 02/01/2006 0          16.75     
Lake_Washington_Level 02/02/2006 0          16.75     
Lake_Washington_Level 02/03/2006 0          16.76     
Lake_Washington_Level 02/04/2006 0          16.75     
Lake_Washington_Level 02/05/2006 0          16.74     
Lake_Washington_Level 02/06/2006 0          16.75     
Lake_Washington_Level 02/07/2006 0          16.75     
Lake_Washington_Level 02/08/2006 0          16.76     
Lake_Washington_Level 02/09/2006 0          16.75     
Lake_Washington_Level 02/10/2006 0          16.76     
Lake_Washington_Level 02/11/2006 0          16.76     
Lake_Washington_Level 02/12/2006 0          16.74     
Lake_Washington_Level 02/13/2006 0          16.77     
Lake_Washington_Level 02/14/2006 0          16.74     
Lake_Washington_Level 02/15/2006 0          16.76     
Lake_Washington_Level 02/16/2006 0          16.87     
Lake_Washington_Level 02/17/2006 0          16.98     
Lake_Washington_Level 02/18/2006 0          17.03     
Lake_Washington_Level 02/19/2006 0          17.05     
Lake_Washington_Level 02/20/2006 0          17.09     
Lake_Washington_Level 02/21/2006 0          17.1      
Lake_Washington_Level 02/22/2006 0          17.13     
Lake_Washington_Level 02/23/2006 0          17.15     
Lake_Washington_Level 02/24/2006 0          17.17     
Lake_Washington_Level 02/25/2006 0          17.2      
Lake_Washington_Level 02/26/2006 0          17.27     
Lake_Washington_Level 02/27/2006 0          17.21     
Lake_Washington_Level 02/28/2006 0          17.31     
Lake_Washington_Level 03/01/2006 0          17.27     
Lake_Washington_Level 03/02/2006 0          17.37     
Lake_Washington_Level 03/03/2006 0          17.36     
Lake_Washington_Level 03/04/2006 0          17.37     
Lake_Washington_Level 03/05/2006 0          17.4      
Lake_Washington_Level 03/06/2006 0          17.41     
Lake_Washington_Level 03/07/2006 0          17.45     
Lake_Washington_Level 03/08/2006 0          17.48     
Lake_Washington_Level 03/09/2006 0          17.49     
Lake_Washington_Level 03/10/2006 0          17.5      
Lake_Washington_Level 03/11/2006 0          17.54     
Lake_Washington_Level 03/12/2006 0          17.56     
Lake_Washington_Level 03/13/2006 0          17.59     
Lake_Washington_Level 03/14/2006 0          17.61     
Lake_Washington_Level 03/15/2006 0          17.64     
Lake_Washington_Level 03/16/2006 0          17.66     
Lake_Washington_Level 03/17/2006 0          17.64     
Lake_Washington_Level 03/18/2006 0          17.71     
Lake_Washington_Level 03/19/2006 0          17.73     
Lake_Washington_Level 03/20/2006 0          17.76     
Lake_Washington_Level 03/21/2006 0          17.78     
Lake_Washington_Level 03/22/2006 0          17.85     
Lake_Washington_Level 03/23/2006 0          17.83     
Lake_Washington_Level 03/24/2006 0          17.86     
Lake_Washington_Level 03/25/2006 0          17.88     
Lake_Washington_Level 03/26/2006 0          17.9      
Lake_Washington_Level 03/27/2006 0          17.93     
Lake_Washington_Level 03/28/2006 0          17.95     
Lake_Washington_Level 03/29/2006 0          17.95     
Lake_Washington_Level 03/30/2006 0          17.99     
Lake_Washington_Level 03/31/2006 0          18.04     
Lake_Washington_Level 04/01/2006 0          18.05     
Lake_Washington_Level 04/02/2006 0          18.07     
Lake_Washington_Level 04/03/2006 0          18.09     
Lake_Washington_Level 04/04/2006 0          18.11     
Lake_Washington_Level 04/05/2006 0          18.16     
Lake_Washington_Level 04/06/2006 0          18.18     
Lake_Washington_Level 04/07/2006 0          18.2      
Lake_Washington_Level 04/08/2006 0          18.25     
Lake_Washington_Level 04/09/2006 0          18.33     
Lake_Washington_Level 04/10/2006 0          18.41     
Lake_Washington_Level 04/11/2006 0          18.43     
Lake_Washington_Level 04/12/2006 0          18.46     
Lake_Washington_Level 04/13/2006 0          18.45     
Lake_Washington_Level 04/14/2006 0          18.55     
Lake_Washington_Level 04/15/2006 0          18.54     
Lake_Washington_Level 04/16/2006 0          18.53     
Lake_Washington_Level 04/17/2006 0          18.63     
Lake_Washington_Level 04/18/2006 0          18.55     
Lake_Washington_Level 04/19/2006 0          18.55     
Lake_Washington_Level 04/20/2006 0          18.57     
Lake_Washington_Level 04/21/2006 0          18.56     
Lake_Washington_Level 04/22/2006 0          18.62     
Lake_Washington_Level 04/23/2006 0          18.64     
Lake_Washington_Level 04/24/2006 0          18.58     
Lake_Washington_Level 04/25/2006 0          18.6      
Lake_Washington_Level 04/26/2006 0          18.62     
Lake_Washington_Level 04/27/2006 0          18.57     
Lake_Washington_Level 04/28/2006 0          18.57     
Lake_Washington_Level 04/29/2006 0          18.61     
Lake_Washington_Level 04/30/2006 0          18.62     
Lake_Washington_Level 05/01/2006 0          18.59     
Lake_Washington_Level 05/02/2006 0          18.62     
Lake_Washington_Level 05/03/2006 0          18.63     
Lake_Washington_Level 05/04/2006 0          18.64     
Lake_Washington_Level 05/05/2006 0          18.67     
Lake_Washington_Level 05/06/2006 0          18.6      
Lake_Washington_Level 05/07/2006 0          18.62     
Lake_Washington_Level 05/08/2006 0          18.61     
Lake_Washington_Level 05/09/2006 0          18.61     
Lake_Washington_Level 05/10/2006 0          18.62     
Lake_Washington_Level 05/11/2006 0          18.63     
Lake_Washington_Level 05/12/2006 0          18.68     
Lake_Washington_Level 05/13/2006 0          18.66     
Lake_Washington_Level 05/14/2006 0          18.65     
Lake_Washington_Level 05/15/2006 0          18.65     
Lake_Washington_Level 05/16/2006 0          18.69     
Lake_Washington_Level 05/17/2006 0          18.71     
Lake_Washington_Level 05/18/2006 0          18.7      
Lake_Washington_Level 05/19/2006 0          18.72     
Lake_Washington_Level 05/20/2006 0          18.61     
Lake_Washington_Level 05/21/2006 0          18.62     
Lake_Washington_Level 05/22/2006 0          18.66     
Lake_Washington_Level 05/23/2006 0          18.67     
Lake_Washington_Level 05/24/2006 0          18.67     
Lake_Washington_Level 05/25/2006 0          18.64     
Lake_Washington_Level 05/26/2006 0          18.65     
Lake_Washington_Level 05/27/2006 0          18.65     
Lake_Washington_Level 05/28/2006 0          18.67     
Lake_Washington_Level 05/29/2006 0          18.68     
Lake_Washington_Level 05/30/2006 0          18.67     
Lake_Washington_Level 05/31/2006 0          18.62     
Lake_Washington_Level 06/01/2006 0          18.67     
Lake_Washington_Level 06/02/2006 0          18.69     
Lake_Washington_Level 06/03/2006 0          18.65     
Lake_Washington_Level 06/04/2006 0          18.68     
Lake_Washington_Level 06/05/2006 0          18.68     
Lake_Washington_Level 06/06/2006 0          18.68     
Lake_Washington_Level 06/07/2006 0          18.72     
Lake_Washington_Level 06/08/2006 0          18.67     
Lake_Washington_Level 06/09/2006 0          18.61     
Lake_Washington_Level 06/10/2006 0          18.63     
Lake_Washington_Level 06/11/2006 0          18.64     
Lake_Washington_Level 06/12/2006 0          18.61     
Lake_Washington_Level 06/13/2006 0          18.65     
Lake_Washington_Level 06/14/2006 0          18.66     
Lake_Washington_Level 06/15/2006 0          18.66     
Lake_Washington_Level 06/16/2006 0          18.65     
Lake_Washington_Level 06/17/2006 0          18.65     
Lake_Washington_Level 06/18/2006 0          18.65     
Lake_Washington_Level 06/19/2006 0          18.64     
Lake_Washington_Level 06/20/2006 0          18.61     
Lake_Washington_Level 06/21/2006 0          18.62     
Lake_Washington_Level 06/22/2006 0          18.58     
Lake_Washington_Level 06/23/2006 0          18.56     
Lake_Washington_Level 06/24/2006 0          18.55     
Lake_Washington_Level 06/25/2006 0          18.54     
Lake_Washington_Level 06/26/2006 0          18.52     
Lake_Washington_Level 06/27/2006 0          18.49     
Lake_Washington_Level 06/28/2006 0          18.47     
Lake_Washington_Level 06/29/2006 0          18.47     
Lake_Washington_Level 06/30/2006 0          18.45     
Lake_Washington_Level 07/01/2006 0          18.42     
Lake_Washington_Level 07/02/2006 0          18.39     
Lake_Washington_Level 07/03/2006 0          18.37     
Lake_Washington_Level 07/04/2006 0          18.36     
Lake_Washington_Level 07/05/2006 0          18.33     
Lake_Washington_Level 07/06/2006 0          18.31     
Lake_Washington_Level 07/07/2006 0          18.27     
Lake_Washington_Level 07/08/2006 0          18.26     
Lake_Washington_Level 07/09/2006 0          18.24     
Lake_Washington_Level 07/10/2006 0          18.21     
Lake_Washington_Level 07/11/2006 0          18.21     
Lake_Washington_Level 07/12/2006 0          18.17     
Lake_Washington_Level 07/13/2006 0          18.17     
Lake_Washington_Level 07/14/2006 0          18.14     
Lake_Washington_Level 07/15/2006 0          18.11     
Lake_Washington_Level 07/16/2006 0          18.1      
Lake_Washington_Level 07/17/2006 0          18.06     
Lake_Washington_Level 07/18/2006 0          18.04     
Lake_Washington_Level 07/19/2006 0          18        
Lake_Washington_Level 07/20/2006 0          17.96     
Lake_Washington_Level 07/21/2006 0          17.96     
Lake_Washington_Level 07/22/2006 0          17.95     
Lake_Washington_Level 07/23/2006 0          17.94     
Lake_Washington_Level 07/24/2006 0          17.93     
Lake_Washington_Level 07/25/2006 0          17.93     
Lake_Washington_Level 07/26/2006 0          17.89     
Lake_Washington_Level 07/27/2006 0          17.87     
Lake_Washington_Level 07/28/2006 0          17.86     
Lake_Washington_Level 07/29/2006 0          17.83     
Lake_Washington_Level 07/30/2006 0          17.8      
Lake_Washington_Level 07/31/2006 0          17.8      
Lake_Washington_Level 08/01/2006 0          17.75     
Lake_Washington_Level 08/02/2006 0          17.73     
Lake_Washington_Level 08/03/2006 0          17.69     
Lake_Washington_Level 08/04/2006 0          17.65     
Lake_Washington_Level 08/05/2006 0          17.62     
Lake_Washington_Level 08/06/2006 0          17.62     
Lake_Washington_Level 08/07/2006 0          17.59     
Lake_Washington_Level 08/08/2006 0          17.59     
Lake_Washington_Level 08/09/2006 0          17.57     
Lake_Washington_Level 08/10/2006 0          17.56     
Lake_Washington_Level 08/11/2006 0          17.54     
Lake_Washington_Level 08/12/2006 0          17.52     
Lake_Washington_Level 08/13/2006 0          17.49     
Lake_Washington_Level 08/14/2006 0          17.47     
Lake_Washington_Level 08/15/2006 0          17.43     
Lake_Washington_Level 08/16/2006 0          17.44     
Lake_Washington_Level 08/17/2006 0          17.4      
Lake_Washington_Level 08/18/2006 0          17.38     
Lake_Washington_Level 08/19/2006 0          17.34     
Lake_Washington_Level 08/20/2006 0          17.35     
Lake_Washington_Level 08/21/2006 0          17.33     
Lake_Washington_Level 08/22/2006 0          17.31     
Lake_Washington_Level 08/23/2006 0          17.28     
Lake_Washington_Level 08/24/2006 0          17.27     
Lake_Washington_Level 08/25/2006 0          17.26     
Lake_Washington_Level 08/26/2006 0          17.23     
Lake_Washington_Level 08/27/2006 0          17.22     
Lake_Washington_Level 08/28/2006 0          17.2      
Lake_Washington_Level 08/29/2006 0          17.2      
Lake_Washington_Level 08/30/2006 0          17.16     
Lake_Washington_Level 08/31/2006 0          17.15     
Lake_Washington_Level 09/01/2006 0          17.1      
Lake_Washington_Level 09/02/2006 0          17.08     
Lake_Washington_Level 09/03/2006 0          17.1      
Lake_Washington_Level 09/04/2006 0          17.07     
Lake_Washington_Level 09/05/2006 0          17.04     
Lake_Washington_Level 09/06/2006 0          17.03     
Lake_Washington_Level 09/07/2006 0          17.02     
Lake_Washington_Level 09/08/2006 0          17        
Lake_Washington_Level 09/09/2006 0          17        
Lake_Washington_Level 09/10/2006 0          16.99     
Lake_Washington_Level 09/11/2006 0          16.97     
Lake_Washington_Level 09/12/2006 0          16.95     
Lake_Washington_Level 09/13/2006 0          16.94     
Lake_Washington_Level 09/14/2006 0          16.98     
Lake_Washington_Level 09/15/2006 0          16.97     
Lake_Washington_Level 09/16/2006 0          16.97     
Lake_Washington_Level 09/17/2006 0          16.96     
Lake_Washington_Level 09/18/2006 0          16.98     
Lake_Washington_Level 09/19/2006 0          17.02     
Lake_Washington_Level 09/20/2006 0          17.04     
Lake_Washington_Level 09/21/2006 0          17.11     
Lake_Washington_Level 09/22/2006 0          17.1      
Lake_Washington_Level 09/23/2006 0          17.15     
Lake_Washington_Level 09/24/2006 0          17.15     
Lake_Washington_Level 09/25/2006 0          17.17     
Lake_Washington_Level 09/26/2006 0          17.18     
Lake_Washington_Level 09/27/2006 0          17.15     
Lake_Washington_Level 09/28/2006 0          17.19     
Lake_Washington_Level 09/29/2006 0          17.17     
Lake_Washington_Level 09/30/2006 0          17.19     
Lake_Washington_Level 10/01/2006 0          17.18     
Lake_Washington_Level 10/02/2006 0          17.17     
Lake_Washington_Level 10/03/2006 0          17.18     
Lake_Washington_Level 10/04/2006 0          17.17     
Lake_Washington_Level 10/05/2006 0          17.19     
Lake_Washington_Level 10/06/2006 0          17.2      
Lake_Washington_Level 10/07/2006 0          17.19     
Lake_Washington_Level 10/08/2006 0          17.23     
Lake_Washington_Level 10/09/2006 0          17.21     
Lake_Washington_Level 10/10/2006 0          17.23     
Lake_Washington_Level 10/11/2006 0          17.2      
Lake_Washington_Level 10/12/2006 0          17.25     
Lake_Washington_Level 10/13/2006 0          17.26     
Lake_Washington_Level 10/14/2006 0          17.26     
Lake_Washington_Level 10/15/2006 0          17.28     
Lake_Washington_Level 10/16/2006 0          17.35     
Lake_Washington_Level 10/17/2006 0          17.36     
Lake_Washington_Level 10/18/2006 0          17.42     
Lake_Washington_Level 10/19/2006 0          17.46     
Lake_Washington_Level 10/20/2006 0          17.44     
Lake_Washington_Level 10/21/2006 0          17.46     
Lake_Washington_Level 10/22/2006 0          17.47     
Lake_Washington_Level 10/23/2006 0          17.48     
Lake_Washington_Level 10/24/2006 0          17.44     
Lake_Washington_Level 10/25/2006 0          17.36     
Lake_Washington_Level 10/26/2006 0          17.36     
Lake_Washington_Level 10/27/2006 0          17.37     
Lake_Washington_Level 10/28/2006 0          17.23     
Lake_Washington_Level 10/29/2006 0          17.24     
Lake_Washington_Level 10/30/2006 0          17.22     
Lake_Washington_Level 10/31/2006 0          17.24     
Lake_Washington_Level 11/01/2006 0          17.24     
Lake_Washington_Level 11/02/2006 0          17.28     
Lake_Washington_Level 11/03/2006 0          17.16     
Lake_Washington_Level 11/04/2006 0          17.12     
Lake_Washington_Level 11/05/2006 0          17.11     
Lake_Washington_Level 11/06/2006 0          16.87     
Lake_Washington_Level 11/07/2006 0          16.75     
Lake_Washington_Level 11/08/2006 0          16.75     
Lake_Washington_Level 11/09/2006 0          16.75     
Lake_Washington_Level 11/10/2006 0          16.77     
Lake_Washington_Level 11/11/2006 0          16.74     
Lake_Washington_Level 11/12/2006 0          16.75     
Lake_Washington_Level 11/13/2006 0          16.73     
Lake_Washington_Level 11/14/2006 0          16.76     
Lake_Washington_Level 11/15/2006 0          16.75     
Lake_Washington_Level 11/16/2006 0          16.73     
Lake_Washington_Level 11/17/2006 0          16.74     
Lake_Washington_Level 11/18/2006 0          16.75     
Lake_Washington_Level 11/19/2006 0          16.74     
Lake_Washington_Level 11/20/2006 0          16.75     
Lake_Washington_Level 11/21/2006 0          16.77     
Lake_Washington_Level 11/22/2006 0          16.76     
Lake_Washington_Level 11/23/2006 0          16.75     
Lake_Washington_Level 11/24/2006 0          16.75     
Lake_Washington_Level 11/25/2006 0          16.77     
Lake_Washington_Level 11/26/2006 0          16.77     
Lake_Washington_Level 11/27/2006 0          16.74     
Lake_Washington_Level 11/28/2006 0          16.76     
Lake_Washington_Level 11/29/2006 0          16.76     
Lake_Washington_Level 11/30/2006 0          16.74     
Lake_Washington_Level 12/01/2006 0          16.77     
Lake_Washington_Level 12/02/2006 0          16.75     
Lake_Washington_Level 12/03/2006 0          16.78     
Lake_Washington_Level 12/04/2006 0          16.74     
Lake_Washington_Level 12/05/2006 0          16.77     
Lake_Washington_Level 12/06/2006 0          16.76     
Lake_Washington_Level 12/07/2006 0          16.76     
Lake_Washington_Level 12/08/2006 0          16.75     
Lake_Washington_Level 12/09/2006 0          16.79     
Lake_Washington_Level 12/10/2006 0          16.76     
Lake_Washington_Level 12/11/2006 0          16.75     
Lake_Washington_Level 12/12/2006 0          16.75     
Lake_Washington_Level 12/13/2006 0          16.75     
Lake_Washington_Level 12/14/2006 0          16.73     
Lake_Washington_Level 12/15/2006 0          16.75     
Lake_Washington_Level 12/16/2006 0          16.73     
Lake_Washington_Level 12/17/2006 0          16.75     
Lake_Washington_Level 12/18/2006 0          16.75     
Lake_Washington_Level 12/19/2006 0          16.76     
Lake_Washington_Level 12/20/2006 0          16.77     
Lake_Washington_Level 12/21/2006 0          16.76     
Lake_Washington_Level 12/22/2006 0          16.73     
Lake_Washington_Level 12/23/2006 0          16.75     
Lake_Washington_Level 12/24/2006 0          16.75     
Lake_Washington_Level 12/25/2006 0          16.76     
Lake_Washington_Level 12/26/2006 0          16.73     
Lake_Washington_Level 12/27/2006 0          16.78     
Lake_Washington_Level 12/28/2006 0          16.74     
Lake_Washington_Level 12/29/2006 0          16.75     
Lake_Washington_Level 12/30/2006 0          16.75     
Lake_Washington_Level 12/31/2006 0          16.75     
Lake_Washington_Level 01/01/2007 0          16.74     
Lake_Washington_Level 01/02/2007 0          16.79     
Lake_Washington_Level 01/03/2007 0          16.75     
Lake_Washington_Level 01/04/2007 0          16.75     
Lake_Washington_Level 01/05/2007 0          16.75     
Lake_Washington_Level 01/06/2007 0          16.75     
Lake_Washington_Level 01/07/2007 0          16.78     
Lake_Washington_Level 01/08/2007 0          16.74     
Lake_Washington_Level 01/09/2007 0          16.75     
Lake_Washington_Level 01/10/2007 0          16.73     
Lake_Washington_Level 01/11/2007 0          16.75     
Lake_Washington_Level 01/12/2007 0          16.75     
Lake_Washington_Level 01/13/2007 0          16.75     
Lake_Washington_Level 01/14/2007 0          16.76     
Lake_Washington_Level 01/15/2007 0          16.75     
Lake_Washington_Level 01/16/2007 0          16.74     
Lake_Washington_Level 01/17/2007 0          16.77     
Lake_Washington_Level 01/18/2007 0          16.75     
Lake_Washington_Level 01/19/2007 0          16.76     
Lake_Washington_Level 01/20/2007 0          16.75     
Lake_Washington_Level 01/21/2007 0          16.77     
Lake_Washington_Level 01/22/2007 0          16.75     
Lake_Washington_Level 01/23/2007 0          16.78     
Lake_Washington_Level 01/24/2007 0          16.74     
Lake_Washington_Level 01/25/2007 0          16.76     
Lake_Washington_Level 01/26/2007 0          16.76     
Lake_Washington_Level 01/27/2007 0          16.75     
Lake_Washington_Level 01/28/2007 0          16.76     
Lake_Washington_Level 01/29/2007 0          16.77     
Lake_Washington_Level 01/30/2007 0          16.76     
Lake_Washington_Level 01/31/2007 0          16.75     
Lake_Washington_Level 02/01/2007 0          16.77     
Lake_Washington_Level 02/02/2007 0          16.75     
Lake_Washington_Level 02/03/2007 0          16.79     
Lake_Washington_Level 02/04/2007 0          16.74     
Lake_Washington_Level 02/05/2007 0          16.76     
Lake_Washington_Level 02/06/2007 0          16.75     
Lake_Washington_Level 02/07/2007 0          16.76     
Lake_Washington_Level 02/08/2007 0          16.74     
Lake_Washington_Level 02/09/2007 0          16.78     
Lake_Washington_Level 02/10/2007 0          16.75     
Lake_Washington_Level 02/11/2007 0          16.77     
Lake_Washington_Level 02/12/2007 0          16.75     
Lake_Washington_Level 02/13/2007 0          16.77     
Lake_Washington_Level 02/14/2007 0          16.82     
Lake_Washington_Level 02/15/2007 0          16.91     
Lake_Washington_Level 02/16/2007 0          16.96     
Lake_Washington_Level 02/17/2007 0          17.03     
Lake_Washington_Level 02/18/2007 0          17.12     
Lake_Washington_Level 02/19/2007 0          17.17     
Lake_Washington_Level 02/20/2007 0          17.16     
Lake_Washington_Level 02/21/2007 0          17.23     
Lake_Washington_Level 02/22/2007 0          17.23     
Lake_Washington_Level 02/23/2007 0          17.27     
Lake_Washington_Level 02/24/2007 0          17.25     
Lake_Washington_Level 02/25/2007 0          17.29     
Lake_Washington_Level 02/26/2007 0          17.31     
Lake_Washington_Level 02/27/2007 0          17.34     
Lake_Washington_Level 02/28/2007 0          17.37     
Lake_Washington_Level 03/01/2007 0          17.38     
Lake_Washington_Level 03/02/2007 0          17.44     
Lake_Washington_Level 03/03/2007 0          17.45     
Lake_Washington_Level 03/04/2007 0          17.49     
Lake_Washington_Level 03/05/2007 0          17.48     
Lake_Washington_Level 03/06/2007 0          17.5      
Lake_Washington_Level 03/07/2007 0          17.56     
Lake_Washington_Level 03/08/2007 0          17.53     
Lake_Washington_Level 03/09/2007 0          17.515    
Lake_Washington_Level 03/10/2007 0          17.5      
Lake_Washington_Level 03/11/2007 0          17.57     
Lake_Washington_Level 03/12/2007 0          17.54     
Lake_Washington_Level 03/13/2007 0          17.59     
Lake_Washington_Level 03/14/2007 0          17.72     
Lake_Washington_Level 03/15/2007 0          17.75     
Lake_Washington_Level 03/16/2007 0          17.75     
Lake_Washington_Level 03/17/2007 0          17.81     
Lake_Washington_Level 03/18/2007 0          17.81     
Lake_Washington_Level 03/19/2007 0          17.82     
Lake_Washington_Level 03/20/2007 0          17.85     
Lake_Washington_Level 03/21/2007 0          17.87     
Lake_Washington_Level 03/22/2007 0          17.9      
Lake_Washington_Level 03/23/2007 0          17.95     
Lake_Washington_Level 03/24/2007 0          17.96     
Lake_Washington_Level 03/25/2007 0          17.99     
Lake_Washington_Level 03/26/2007 0          18.01     
Lake_Washington_Level 03/27/2007 0          18.03     
Lake_Washington_Level 03/28/2007 0          18.05     
Lake_Washington_Level 03/29/2007 0          18.08     
Lake_Washington_Level 03/30/2007 0          18.1      
Lake_Washington_Level 03/31/2007 0          18.1      
Lake_Washington_Level 04/01/2007 0          18.16     
Lake_Washington_Level 04/02/2007 0          18.16     
Lake_Washington_Level 04/03/2007 0          18.27     
Lake_Washington_Level 04/04/2007 0          18.44     
Lake_Washington_Level 04/05/2007 0          18.4      
Lake_Washington_Level 04/06/2007 0          18.31     
Lake_Washington_Level 04/07/2007 0          18.29     
Lake_Washington_Level 04/08/2007 0          18.29     
Lake_Washington_Level 04/09/2007 0          18.3      
Lake_Washington_Level 04/10/2007 0          18.34     
Lake_Washington_Level 04/11/2007 0          18.27     
Lake_Washington_Level 04/12/2007 0          18.27     
Lake_Washington_Level 04/13/2007 0          18.3      
Lake_Washington_Level 04/14/2007 0          18.3      
Lake_Washington_Level 04/15/2007 0          18.29     
Lake_Washington_Level 04/16/2007 0          18.27     
Lake_Washington_Level 04/17/2007 0          18.28     
Lake_Washington_Level 04/18/2007 0          18.35     
Lake_Washington_Level 04/19/2007 0          18.33     
Lake_Washington_Level 04/20/2007 0          18.33     
Lake_Washington_Level 04/21/2007 0          18.36     
Lake_Washington_Level 04/22/2007 0          18.39     
Lake_Washington_Level 04/23/2007 0          18.41     
Lake_Washington_Level 04/24/2007 0          18.44     
Lake_Washington_Level 04/25/2007 0          18.42     
Lake_Washington_Level 04/26/2007 0          18.47     
Lake_Washington_Level 04/27/2007 0          18.45     
Lake_Washington_Level 04/28/2007 0          18.46     
Lake_Washington_Level 04/29/2007 0          18.47     
Lake_Washington_Level 04/30/2007 0          18.49     
Lake_Washington_Level 05/01/2007 0          18.48     
Lake_Washington_Level 05/02/2007 0          18.52     
Lake_Washington_Level 05/03/2007 0          18.5      
Lake_Washington_Level 05/04/2007 0          18.55     
Lake_Washington_Level 05/05/2007 0          18.53     
Lake_Washington_Level 05/06/2007 0          18.56     
Lake_Washington_Level 05/07/2007 0          18.52     
Lake_Washington_Level 05/08/2007 0          18.56     
Lake_Washington_Level 05/09/2007 0          18.57     
Lake_Washington_Level 05/10/2007 0          18.54     
Lake_Washington_Level 05/11/2007 0          18.53     
Lake_Washington_Level 05/12/2007 0          18.49     
Lake_Washington_Level 05/13/2007 0          18.5      
Lake_Washington_Level 05/14/2007 0          18.53     
Lake_Washington_Level 05/15/2007 0          18.51     
Lake_Washington_Level 05/16/2007 0          18.49     
Lake_Washington_Level 05/17/2007 0          18.52     
Lake_Washington_Level 05/18/2007 0          18.5      
Lake_Washington_Level 05/19/2007 0          18.52     
Lake_Washington_Level 05/20/2007 0          18.52     
Lake_Washington_Level 05/21/2007 0          18.57     
Lake_Washington_Level 05/22/2007 0          18.66     
Lake_Washington_Level 05/23/2007 0          18.67     
Lake_Washington_Level 05/24/2007 0          18.66     
Lake_Washington_Level 05/25/2007 0          18.62     
Lake_Washington_Level 05/26/2007 0          18.63     
Lake_Washington_Level 05/27/2007 0          18.63     
Lake_Washington_Level 05/28/2007 0          18.62     
Lake_Washington_Level 05/29/2007 0          18.64     
Lake_Washington_Level 05/30/2007 0          18.58     
Lake_Washington_Level 05/31/2007 0          18.55     
Lake_Washington_Level 06/01/2007 0          18.51     
Lake_Washington_Level 06/02/2007 0          18.51     
Lake_Washington_Level 06/03/2007 0          18.48     
Lake_Washington_Level 06/04/2007 0          18.49     
Lake_Washington_Level 06/05/2007 0          18.46     
Lake_Washington_Level 06/06/2007 0          18.47     
Lake_Washington_Level 06/07/2007 0          18.45     
Lake_Washington_Level 06/08/2007 0          18.44     
Lake_Washington_Level 06/09/2007 0          18.41     
Lake_Washington_Level 06/10/2007 0          18.45     
Lake_Washington_Level 06/11/2007 0          18.42     
Lake_Washington_Level 06/12/2007 0          18.41     
Lake_Washington_Level 06/13/2007 0          18.36     
Lake_Washington_Level 06/14/2007 0          18.4      
Lake_Washington_Level 06/15/2007 0          18.38     
Lake_Washington_Level 06/16/2007 0          18.4      
Lake_Washington_Level 06/17/2007 0          18.42     
Lake_Washington_Level 06/18/2007 0          18.42     
Lake_Washington_Level 06/19/2007 0          18.42     
Lake_Washington_Level 06/20/2007 0          18.42     
Lake_Washington_Level 06/21/2007 0          18.41     
Lake_Washington_Level 06/22/2007 0          18.4      
Lake_Washington_Level 06/23/2007 0          18.39     
Lake_Washington_Level 06/24/2007 0          18.37     
Lake_Washington_Level 06/25/2007 0          18.33     
Lake_Washington_Level 06/26/2007 0          18.3      
Lake_Washington_Level 06/27/2007 0          18.3      
Lake_Washington_Level 06/28/2007 0          18.31     
Lake_Washington_Level 06/29/2007 0          18.35     
Lake_Washington_Level 06/30/2007 0          18.35     
Lake_Washington_Level 07/01/2007 0          18.37     
Lake_Washington_Level 07/02/2007 0          18.38     
Lake_Washington_Level 07/03/2007 0          18.38     
Lake_Washington_Level 07/04/2007 0          18.37     
Lake_Washington_Level 07/05/2007 0          18.36     
Lake_Washington_Level 07/06/2007 0          18.35     
Lake_Washington_Level 07/07/2007 0          18.3      
Lake_Washington_Level 07/08/2007 0          18.3      
Lake_Washington_Level 07/09/2007 0          18.31     
Lake_Washington_Level 07/10/2007 0          18.25     
Lake_Washington_Level 07/11/2007 0          18.24     
Lake_Washington_Level 07/12/2007 0          18.2      
Lake_Washington_Level 07/13/2007 0          18.21     
Lake_Washington_Level 07/14/2007 0          18.19     
Lake_Washington_Level 07/15/2007 0          18.18     
Lake_Washington_Level 07/16/2007 0          18.16     
Lake_Washington_Level 07/17/2007 0          18.13     
Lake_Washington_Level 07/18/2007 0          18.13     
Lake_Washington_Level 07/19/2007 0          18.16     
Lake_Washington_Level 07/20/2007 0          18.14     
Lake_Washington_Level 07/21/2007 0          18.18     
Lake_Washington_Level 07/22/2007 0          18.19     
Lake_Washington_Level 07/23/2007 0          18.26     
Lake_Washington_Level 07/24/2007 0          18.25     
Lake_Washington_Level 07/25/2007 0          18.21     
Lake_Washington_Level 07/26/2007 0          18.2      
Lake_Washington_Level 07/27/2007 0          18.2      
Lake_Washington_Level 07/28/2007 0          18.16     
Lake_Washington_Level 07/29/2007 0          18.16     
Lake_Washington_Level 07/30/2007 0          18.14     
Lake_Washington_Level 07/31/2007 0          18.12     
Lake_Washington_Level 08/01/2007 0          18.09     
Lake_Washington_Level 08/02/2007 0          18.03     
Lake_Washington_Level 08/03/2007 0          18.05     
Lake_Washington_Level 08/04/2007 0          18.01     
Lake_Washington_Level 08/05/2007 0          17.99     
Lake_Washington_Level 08/06/2007 0          17.96     
Lake_Washington_Level 08/07/2007 0          17.96     
Lake_Washington_Level 08/08/2007 0          17.9      
Lake_Washington_Level 08/09/2007 0          17.82     
Lake_Washington_Level 08/10/2007 0          17.87     
Lake_Washington_Level 08/11/2007 0          17.84     
Lake_Washington_Level 08/12/2007 0          17.81     
Lake_Washington_Level 08/13/2007 0          17.8      
Lake_Washington_Level 08/14/2007 0          17.75     
Lake_Washington_Level 08/15/2007 0          17.73     
Lake_Washington_Level 08/16/2007 0          17.73     
Lake_Washington_Level 08/17/2007 0          17.68     
Lake_Washington_Level 08/18/2007 0          17.66     
Lake_Washington_Level 08/19/2007 0          17.65     
Lake_Washington_Level 08/20/2007 0          17.7      
Lake_Washington_Level 08/21/2007 0          17.71     
Lake_Washington_Level 08/22/2007 0          17.7      
Lake_Washington_Level 08/23/2007 0          17.69     
Lake_Washington_Level 08/24/2007 0          17.64     
Lake_Washington_Level 08/25/2007 0          17.66     
Lake_Washington_Level 08/26/2007 0          17.66     
Lake_Washington_Level 08/27/2007 0          17.64     
Lake_Washington_Level 08/28/2007 0          17.61     
Lake_Washington_Level 08/29/2007 0          17.58     
Lake_Washington_Level 08/30/2007 0          17.57     
Lake_Washington_Level 08/31/2007 0          17.54     
Lake_Washington_Level 09/01/2007 0          17.53     
Lake_Washington_Level 09/02/2007 0          17.48     
Lake_Washington_Level 09/03/2007 0          17.48     
Lake_Washington_Level 09/04/2007 0          17.45     
Lake_Washington_Level 09/05/2007 0          17.55     
Lake_Washington_Level 09/06/2007 0          17.52     
Lake_Washington_Level 09/07/2007 0          17.51     
Lake_Washington_Level 09/08/2007 0          17.45     
Lake_Washington_Level 09/09/2007 0          17.43     
Lake_Washington_Level 09/10/2007 0          17.38     
Lake_Washington_Level 09/11/2007 0          17.35     
Lake_Washington_Level 09/12/2007 0          17.35     
Lake_Washington_Level 09/13/2007 0          17.33     
Lake_Washington_Level 09/14/2007 0          17.32     
Lake_Washington_Level 09/15/2007 0          17.26     
Lake_Washington_Level 09/16/2007 0          17.27     
Lake_Washington_Level 09/17/2007 0          17.28     
Lake_Washington_Level 09/18/2007 0          17.26     
Lake_Washington_Level 09/19/2007 0          17.29     
Lake_Washington_Level 09/20/2007 0          17.26     
Lake_Washington_Level 09/21/2007 0          17.26     
Lake_Washington_Level 09/22/2007 0          17.24     
Lake_Washington_Level 09/23/2007 0          17.23     
Lake_Washington_Level 09/24/2007 0          17.22     
Lake_Washington_Level 09/25/2007 0          17.23     
Lake_Washington_Level 09/26/2007 0          17.22     
Lake_Washington_Level 09/27/2007 0          17.22     
Lake_Washington_Level 09/28/2007 0          17.3      
Lake_Washington_Level 09/29/2007 0          17.28     
Lake_Washington_Level 09/30/2007 0          17.32     
Lake_Washington_Level 10/01/2007 0          17.38     
Lake_Washington_Level 10/02/2007 0          17.41     
Lake_Washington_Level 10/03/2007 0          17.46     
Lake_Washington_Level 10/04/2007 0          17.47     
Lake_Washington_Level 10/05/2007 0          17.39     
Lake_Washington_Level 10/06/2007 0          17.4      
Lake_Washington_Level 10/07/2007 0          17.4      
Lake_Washington_Level 10/08/2007 0          17.45     
Lake_Washington_Level 10/09/2007 0          17.45     
Lake_Washington_Level 10/10/2007 0          17.45     
Lake_Washington_Level 10/11/2007 0          17.45     
Lake_Washington_Level 10/12/2007 0          17.44     
Lake_Washington_Level 10/13/2007 0          17.44     
Lake_Washington_Level 10/14/2007 0          17.4      
Lake_Washington_Level 10/15/2007 0          17.41     
Lake_Washington_Level 10/16/2007 0          17.45     
Lake_Washington_Level 10/17/2007 0          17.43     
Lake_Washington_Level 10/18/2007 0          17.39     
Lake_Washington_Level 10/19/2007 0          17.38     
Lake_Washington_Level 10/20/2007 0          17.37     
Lake_Washington_Level 10/21/2007 0          17.35     
Lake_Washington_Level 10/22/2007 0          17.33     
Lake_Washington_Level 10/23/2007 0          17.32     
Lake_Washington_Level 10/24/2007 0          17.3      
Lake_Washington_Level 10/25/2007 0          17.3      
Lake_Washington_Level 10/26/2007 0          17.28     
Lake_Washington_Level 10/27/2007 0          17.29     
Lake_Washington_Level 10/28/2007 0          17.29     
Lake_Washington_Level 10/29/2007 0          17.23     
Lake_Washington_Level 10/30/2007 0          17.2      
Lake_Washington_Level 10/31/2007 0          17.2      
Lake_Washington_Level 11/01/2007 0          17.19     
Lake_Washington_Level 11/02/2007 0          17.14     
Lake_Washington_Level 11/03/2007 0          17.18     
Lake_Washington_Level 11/04/2007 0          17.13     
Lake_Washington_Level 11/05/2007 0          17.13     
Lake_Washington_Level 11/06/2007 0          17.1      
Lake_Washington_Level 11/07/2007 0          17.15     
Lake_Washington_Level 11/08/2007 0          17.14     
Lake_Washington_Level 11/09/2007 0          17.17     
Lake_Washington_Level 11/10/2007 0          17.15     
Lake_Washington_Level 11/11/2007 0          17.14     
Lake_Washington_Level 11/12/2007 0          17.17     
Lake_Washington_Level 11/13/2007 0          17.13     
Lake_Washington_Level 11/14/2007 0          17.05     
Lake_Washington_Level 11/15/2007 0          17.05     
Lake_Washington_Level 11/16/2007 0          17.06     
Lake_Washington_Level 11/17/2007 0          17        
Lake_Washington_Level 11/18/2007 0          17.07     
Lake_Washington_Level 11/19/2007 0          17.04     
Lake_Washington_Level 11/20/2007 0          17.05     
Lake_Washington_Level 11/21/2007 0          17.08     
Lake_Washington_Level 11/22/2007 0          17.03     
Lake_Washington_Level 11/23/2007 0          17.05     
Lake_Washington_Level 11/24/2007 0          17.06     
Lake_Washington_Level 11/25/2007 0          17.07     
Lake_Washington_Level 11/26/2007 0          17.06     
Lake_Washington_Level 11/27/2007 0          17.11     
Lake_Washington_Level 11/28/2007 0          17.03     
Lake_Washington_Level 11/29/2007 0          16.87     
Lake_Washington_Level 11/30/2007 0          16.85     
Lake_Washington_Level 12/01/2007 0          16.75     
Lake_Washington_Level 12/02/2007 0          16.77     
Lake_Washington_Level 12/03/2007 0          16.92     
Lake_Washington_Level 12/04/2007 0          16.93     
Lake_Washington_Level 12/05/2007 0          16.79     
Lake_Washington_Level 12/06/2007 0          16.73     
Lake_Washington_Level 12/07/2007 0          16.76     
Lake_Washington_Level 12/08/2007 0          16.76     
Lake_Washington_Level 12/09/2007 0          16.75     
Lake_Washington_Level 12/10/2007 0          16.75     
Lake_Washington_Level 12/11/2007 0          16.78     
Lake_Washington_Level 12/12/2007 0          16.74     
Lake_Washington_Level 12/13/2007 0          16.76     
Lake_Washington_Level 12/14/2007 0          16.73     
Lake_Washington_Level 12/15/2007 0          16.79     
Lake_Washington_Level 12/16/2007 0          16.74     
Lake_Washington_Level 12/17/2007 0          16.75     
Lake_Washington_Level 12/18/2007 0          16.78     
Lake_Washington_Level 12/19/2007 0          16.76     
Lake_Washington_Level 12/20/2007 0          16.77     
Lake_Washington_Level 12/21/2007 0          16.75     
Lake_Washington_Level 12/22/2007 0          16.75     
Lake_Washington_Level 12/23/2007 0          16.71     
Lake_Washington_Level 12/24/2007 0          16.8      
Lake_Washington_Level 12/25/2007 0          16.74     
Lake_Washington_Level 12/26/2007 0          16.74     
Lake_Washington_Level 12/27/2007 0          16.77     
Lake_Washington_Level 12/28/2007 0          16.74     
Lake_Washington_Level 12/29/2007 0          16.78     
Lake_Washington_Level 12/30/2007 0          16.77     
Lake_Washington_Level 12/31/2007 0          16.77     
Lake_Washington_Level 01/01/2008 0          16.76     
Lake_Washington_Level 01/02/2008 0          16.8      
Lake_Washington_Level 01/03/2008 0          16.76     
Lake_Washington_Level 01/04/2008 0          16.72     
Lake_Washington_Level 01/05/2008 0          16.74     
Lake_Washington_Level 01/06/2008 0          16.78     
Lake_Washington_Level 01/07/2008 0          16.73     
Lake_Washington_Level 01/08/2008 0          16.75     
Lake_Washington_Level 01/09/2008 0          16.71     
Lake_Washington_Level 01/10/2008 0          16.78     
Lake_Washington_Level 01/11/2008 0          16.71     
Lake_Washington_Level 01/12/2008 0          16.77     
Lake_Washington_Level 01/13/2008 0          16.73     
Lake_Washington_Level 01/14/2008 0          16.79     
Lake_Washington_Level 01/15/2008 0          16.73     
Lake_Washington_Level 01/16/2008 0          16.77     
Lake_Washington_Level 01/17/2008 0          16.73     
Lake_Washington_Level 01/18/2008 0          16.78     
Lake_Washington_Level 01/19/2008 0          16.74     
Lake_Washington_Level 01/20/2008 0          16.74     
Lake_Washington_Level 01/21/2008 0          16.75     
Lake_Washington_Level 01/22/2008 0          16.81     
Lake_Washington_Level 01/23/2008 0          16.76     
Lake_Washington_Level 01/24/2008 0          16.78     
Lake_Washington_Level 01/25/2008 0          16.75     
Lake_Washington_Level 01/26/2008 0          16.8      
Lake_Washington_Level 01/27/2008 0          16.76     
Lake_Washington_Level 01/28/2008 0          16.8      
Lake_Washington_Level 01/29/2008 0          16.75     
Lake_Washington_Level 01/30/2008 0          16.77     
Lake_Washington_Level 01/31/2008 0          16.76     
Lake_Washington_Level 02/01/2008 0          16.75     
Lake_Washington_Level 02/02/2008 0          16.76     
Lake_Washington_Level 02/03/2008 0          16.78     
Lake_Washington_Level 02/04/2008 0          16.76     
Lake_Washington_Level 02/05/2008 0          16.76     
Lake_Washington_Level 02/06/2008 0          16.77     
Lake_Washington_Level 02/07/2008 0          16.74     
Lake_Washington_Level 02/08/2008 0          16.75     
Lake_Washington_Level 02/09/2008 0          16.78     
Lake_Washington_Level 02/10/2008 0          16.76     
Lake_Washington_Level 02/11/2008 0          16.72     
Lake_Washington_Level 02/12/2008 0          16.79     
Lake_Washington_Level 02/13/2008 0          16.76     
Lake_Washington_Level 02/14/2008 0          16.78     
Lake_Washington_Level 02/15/2008 0          16.77     
Lake_Washington_Level 02/16/2008 0          16.84     
Lake_Washington_Level 02/17/2008 0          16.96     
Lake_Washington_Level 02/18/2008 0          17.06     
Lake_Washington_Level 02/19/2008 0          17.03     
Lake_Washington_Level 02/20/2008 0          17.1      
Lake_Washington_Level 02/21/2008 0          17.11     
Lake_Washington_Level 02/22/2008 0          17.14     
Lake_Washington_Level 02/23/2008 0          17.16     
Lake_Washington_Level 02/24/2008 0          17.17     
Lake_Washington_Level 02/25/2008 0          17.13     
Lake_Washington_Level 02/26/2008 0          17.24     
Lake_Washington_Level 02/27/2008 0          17.3      
Lake_Washington_Level 02/28/2008 0          17.24     
Lake_Washington_Level 02/29/2008 0          17.28     
Lake_Washington_Level 03/01/2008 0          17.28     
Lake_Washington_Level 03/02/2008 0          17.33     
Lake_Washington_Level 03/03/2008 0          17.36     
Lake_Washington_Level 03/04/2008 0          17.37     
Lake_Washington_Level 03/05/2008 0          17.39     
Lake_Washington_Level 03/06/2008 0          17.43     
Lake_Washington_Level 03/07/2008 0          17.44     
Lake_Washington_Level 03/08/2008 0          17.46     
Lake_Washington_Level 03/09/2008 0          17.52     
Lake_Washington_Level 03/10/2008 0          17.54     
Lake_Washington_Level 03/11/2008 0          17.53     
Lake_Washington_Level 03/12/2008 0          17.57     
Lake_Washington_Level 03/13/2008 0          17.6      
Lake_Washington_Level 03/14/2008 0          17.61     
Lake_Washington_Level 03/15/2008 0          17.63     
Lake_Washington_Level 03/16/2008 0          17.64     
Lake_Washington_Level 03/17/2008 0          17.67     
Lake_Washington_Level 03/18/2008 0          17.73     
Lake_Washington_Level 03/19/2008 0          17.73     
Lake_Washington_Level 03/20/2008 0          17.76     
Lake_Washington_Level 03/21/2008 0          17.71     
Lake_Washington_Level 03/22/2008 0          17.79     
Lake_Washington_Level 03/23/2008 0          17.85     
Lake_Washington_Level 03/24/2008 0          17.82     
Lake_Washington_Level 03/25/2008 0          17.89     
Lake_Washington_Level 03/26/2008 0          17.91     
Lake_Washington_Level 03/27/2008 0          17.95     
Lake_Washington_Level 03/28/2008 0          17.98     
Lake_Washington_Level 03/29/2008 0          17.97     
Lake_Washington_Level 03/30/2008 0          18.01     
Lake_Washington_Level 03/31/2008 0          18.04     
Lake_Washington_Level 04/01/2008 0          18.05     
Lake_Washington_Level 04/02/2008 0          18.04     
Lake_Washington_Level 04/03/2008 0          18.09     
Lake_Washington_Level 04/04/2008 0          18.15     
Lake_Washington_Level 04/05/2008 0          18.1      
Lake_Washington_Level 04/06/2008 0          18.17     
Lake_Washington_Level 04/07/2008 0          18.14     
Lake_Washington_Level 04/08/2008 0          18.19     
Lake_Washington_Level 04/09/2008 0          18.22     
Lake_Washington_Level 04/10/2008 0          18.22     
Lake_Washington_Level 04/11/2008 0          18.21     
Lake_Washington_Level 04/12/2008 0          18.2      
Lake_Washington_Level 04/13/2008 0          18.3      
Lake_Washington_Level 04/14/2008 0          18.3      
Lake_Washington_Level 04/15/2008 0          18.26     
Lake_Washington_Level 04/16/2008 0          18.35     
Lake_Washington_Level 04/17/2008 0          18.29     
Lake_Washington_Level 04/18/2008 0          18.34     
Lake_Washington_Level 04/19/2008 0          18.3      
Lake_Washington_Level 04/20/2008 0          18.26     
Lake_Washington_Level 04/21/2008 0          18.37     
Lake_Washington_Level 04/22/2008 0          18.38     
Lake_Washington_Level 04/23/2008 0          18.43     
Lake_Washington_Level 04/24/2008 0          18.37     
Lake_Washington_Level 04/25/2008 0          18.38     
Lake_Washington_Level 04/26/2008 0          18.38     
Lake_Washington_Level 04/27/2008 0          18.38     
Lake_Washington_Level 04/28/2008 0          18.43     
Lake_Washington_Level 04/29/2008 0          18.49     
Lake_Washington_Level 04/30/2008 0          18.46     
Lake_Washington_Level 05/01/2008 0          18.52     
Lake_Washington_Level 05/02/2008 0          18.5      
Lake_Washington_Level 05/03/2008 0          18.48     
Lake_Washington_Level 05/04/2008 0          18.47     
Lake_Washington_Level 05/05/2008 0          18.55     
Lake_Washington_Level 05/06/2008 0          18.54     
Lake_Washington_Level 05/07/2008 0          18.57     
Lake_Washington_Level 05/08/2008 0          18.56     
Lake_Washington_Level 05/09/2008 0          18.55     
Lake_Washington_Level 05/10/2008 0          18.56     
Lake_Washington_Level 05/11/2008 0          18.56     
Lake_Washington_Level 05/12/2008 0          18.56     
Lake_Washington_Level 05/13/2008 0          18.59     
Lake_Washington_Level 05/14/2008 0          18.59     
Lake_Washington_Level 05/15/2008 0          18.65     
Lake_Washington_Level 05/16/2008 0          18.63     
Lake_Washington_Level 05/17/2008 0          18.62     
Lake_Washington_Level 05/18/2008 0          18.64     
Lake_Washington_Level 05/19/2008 0          18.55     
Lake_Washington_Level 05/20/2008 0          18.59     
Lake_Washington_Level 05/21/2008 0          18.57     
Lake_Washington_Level 05/22/2008 0          18.56     
Lake_Washington_Level 05/23/2008 0          18.63     
Lake_Washington_Level 05/24/2008 0          18.61     
Lake_Washington_Level 05/25/2008 0          18.61     
Lake_Washington_Level 05/26/2008 0          18.6      
Lake_Washington_Level 05/27/2008 0          18.74     
Lake_Washington_Level 05/28/2008 0          18.55     
Lake_Washington_Level 05/29/2008 0          18.62     
Lake_Washington_Level 05/30/2008 0          18.62     
Lake_Washington_Level 05/31/2008 0          18.58     
Lake_Washington_Level 06/01/2008 0          18.64     
Lake_Washington_Level 06/02/2008 0          18.64     
Lake_Washington_Level 06/03/2008 0          18.65     
Lake_Washington_Level 06/04/2008 0          18.64     
Lake_Washington_Level 06/05/2008 0          18.64     
Lake_Washington_Level 06/06/2008 0          18.76     
Lake_Washington_Level 06/07/2008 0          18.61     
Lake_Washington_Level 06/08/2008 0          18.6      
Lake_Washington_Level 06/09/2008 0          18.64     
Lake_Washington_Level 06/10/2008 0          18.49     
Lake_Washington_Level 06/11/2008 0          18.63     
Lake_Washington_Level 06/12/2008 0          18.59     
Lake_Washington_Level 06/13/2008 0          18.61     
Lake_Washington_Level 06/14/2008 0          18.62     
Lake_Washington_Level 06/15/2008 0          18.61     
Lake_Washington_Level 06/16/2008 0          18.61     
Lake_Washington_Level 06/17/2008 0          18.61     
Lake_Washington_Level 06/18/2008 0          18.59     
Lake_Washington_Level 06/19/2008 0          18.62     
Lake_Washington_Level 06/20/2008 0          18.65     
Lake_Washington_Level 06/21/2008 0          18.68     
Lake_Washington_Level 06/22/2008 0          18.61     
Lake_Washington_Level 06/23/2008 0          18.63     
Lake_Washington_Level 06/24/2008 0          18.61     
Lake_Washington_Level 06/25/2008 0          18.63     
Lake_Washington_Level 06/26/2008 0          18.66     
Lake_Washington_Level 06/27/2008 0          18.6      
Lake_Washington_Level 06/28/2008 0          18.58     
Lake_Washington_Level 06/29/2008 0          18.62     
Lake_Washington_Level 06/30/2008 0          18.6      
Lake_Washington_Level 07/01/2008 0          18.63     
Lake_Washington_Level 07/02/2008 0          18.65     
Lake_Washington_Level 07/03/2008 0          18.63     
Lake_Washington_Level 07/04/2008 0          18.59     
Lake_Washington_Level 07/05/2008 0          18.6      
Lake_Washington_Level 07/06/2008 0          18.64     
Lake_Washington_Level 07/07/2008 0          18.64     
Lake_Washington_Level 07/08/2008 0          18.66     
Lake_Washington_Level 07/09/2008 0          18.65     
Lake_Washington_Level 07/10/2008 0          18.64     
Lake_Washington_Level 07/11/2008 0          18.62     
Lake_Washington_Level 07/12/2008 0          18.56     
Lake_Washington_Level 07/13/2008 0          18.53     
Lake_Washington_Level 07/14/2008 0          18.53     
Lake_Washington_Level 07/15/2008 0          18.47     
Lake_Washington_Level 07/16/2008 0          18.47     
Lake_Washington_Level 07/17/2008 0          18.39     
Lake_Washington_Level 07/18/2008 0          18.4      
Lake_Washington_Level 07/19/2008 0          18.37     
Lake_Washington_Level 07/20/2008 0          18.34     
Lake_Washington_Level 07/21/2008 0          18.29     
Lake_Washington_Level 07/22/2008 0          18.25     
Lake_Washington_Level 07/23/2008 0          18.23     
Lake_Washington_Level 07/24/2008 0          18.2      
Lake_Washington_Level 07/25/2008 0          18.17     
Lake_Washington_Level 07/26/2008 0          18.12     
Lake_Washington_Level 07/27/2008 0          18.1      
Lake_Washington_Level 07/28/2008 0          18.09     
Lake_Washington_Level 07/29/2008 0          18.05     
Lake_Washington_Level 07/30/2008 0          18.03     
Lake_Washington_Level 07/31/2008 0          18        
Lake_Washington_Level 08/01/2008 0          18.04     
Lake_Washington_Level 08/02/2008 0          18        
Lake_Washington_Level 08/03/2008 0          17.99     
Lake_Washington_Level 08/04/2008 0          17.99     
Lake_Washington_Level 08/05/2008 0          17.96     
Lake_Washington_Level 08/06/2008 0          17.91     
Lake_Washington_Level 08/07/2008 0          17.92     
Lake_Washington_Level 08/08/2008 0          17.9      
Lake_Washington_Level 08/09/2008 0          17.88     
Lake_Washington_Level 08/10/2008 0          17.89     
Lake_Washington_Level 08/11/2008 0          17.86     
Lake_Washington_Level 08/12/2008 0          17.84     
Lake_Washington_Level 08/13/2008 0          17.81     
Lake_Washington_Level 08/14/2008 0          17.8      
Lake_Washington_Level 08/15/2008 0          17.79     
Lake_Washington_Level 08/16/2008 0          17.76     
Lake_Washington_Level 08/17/2008 0          17.74     
Lake_Washington_Level 08/18/2008 0          17.74     
Lake_Washington_Level 08/19/2008 0          17.73     
Lake_Washington_Level 08/20/2008 0          17.79     
Lake_Washington_Level 08/21/2008 0          17.85     
Lake_Washington_Level 08/22/2008 0          17.85     
Lake_Washington_Level 08/23/2008 0          17.84     
Lake_Washington_Level 08/24/2008 0          17.86     
Lake_Washington_Level 08/25/2008 0          17.97     
Lake_Washington_Level 08/26/2008 0          18.02     
Lake_Washington_Level 08/27/2008 0          18.02     
Lake_Washington_Level 08/28/2008 0          18.04     
Lake_Washington_Level 08/29/2008 0          18.02     
Lake_Washington_Level 08/30/2008 0          17.99     
Lake_Washington_Level 08/31/2008 0          17.98     
Lake_Washington_Level 09/01/2008 0          17.95     
Lake_Washington_Level 09/02/2008 0          17.95     
Lake_Washington_Level 09/03/2008 0          17.89     
Lake_Washington_Level 09/04/2008 0          17.91     
Lake_Washington_Level 09/05/2008 0          17.85     
Lake_Washington_Level 09/06/2008 0          17.82     
Lake_Washington_Level 09/07/2008 0          17.8      
Lake_Washington_Level 09/08/2008 0          17.77     
Lake_Washington_Level 09/09/2008 0          17.75     
Lake_Washington_Level 09/10/2008 0          17.72     
Lake_Washington_Level 09/11/2008 0          17.68     
Lake_Washington_Level 09/12/2008 0          17.65     
Lake_Washington_Level 09/13/2008 0          17.63     
Lake_Washington_Level 09/14/2008 0          17.61     
Lake_Washington_Level 09/15/2008 0          17.59     
Lake_Washington_Level 09/16/2008 0          17.57     
Lake_Washington_Level 09/17/2008 0          17.57     
Lake_Washington_Level 09/18/2008 0          17.54     
Lake_Washington_Level 09/19/2008 0          17.47     
Lake_Washington_Level 09/20/2008 0          17.46     
Lake_Washington_Level 09/21/2008 0          17.51     
Lake_Washington_Level 09/22/2008 0          17.51     
Lake_Washington_Level 09/23/2008 0          17.46     
Lake_Washington_Level 09/24/2008 0          17.44     
Lake_Washington_Level 09/25/2008 0          17.46     
Lake_Washington_Level 09/26/2008 0          17.44     
Lake_Washington_Level 09/27/2008 0          17.42     
Lake_Washington_Level 09/28/2008 0          17.42     
Lake_Washington_Level 09/29/2008 0          17.38     
Lake_Washington_Level 09/30/2008 0          17.38     
Lake_Washington_Level 10/01/2008 0          17.37     
Lake_Washington_Level 10/02/2008 0          17.38     
Lake_Washington_Level 10/03/2008 0          17.4      
Lake_Washington_Level 10/04/2008 0          17.41     
Lake_Washington_Level 10/05/2008 0          17.43     
Lake_Washington_Level 10/06/2008 0          17.44     
Lake_Washington_Level 10/07/2008 0          17.45     
Lake_Washington_Level 10/08/2008 0          17.48     
Lake_Washington_Level 10/09/2008 0          17.44     
Lake_Washington_Level 10/10/2008 0          17.44     
Lake_Washington_Level 10/11/2008 0          17.45     
Lake_Washington_Level 10/12/2008 0          17.45     
Lake_Washington_Level 10/13/2008 0          17.46     
Lake_Washington_Level 10/14/2008 0          17.49     
Lake_Washington_Level 10/15/2008 0          17.51     
Lake_Washington_Level 10/16/2008 0          17.56     
Lake_Washington_Level 10/17/2008 0          17.555    
Lake_Washington_Level 10/18/2008 0          17.55     
Lake_Washington_Level 10/19/2008 0          17.5      
Lake_Washington_Level 10/20/2008 0          17.5      
Lake_Washington_Level 10/21/2008 0          17.5      
Lake_Washington_Level 10/22/2008 0          17.47     
Lake_Washington_Level 10/23/2008 0          17.44     
Lake_Washington_Level 10/24/2008 0          17.45     
Lake_Washington_Level 10/25/2008 0          17.44     
Lake_Washington_Level 10/26/2008 0          17.45     
Lake_Washington_Level 10/27/2008 0          17.41     
Lake_Washington_Level 10/28/2008 0          17.38     
Lake_Washington_Level 10/29/2008 0          17.41     
Lake_Washington_Level 10/30/2008 0          17.38     
Lake_Washington_Level 10/31/2008 0          17.36     
Lake_Washington_Level 11/01/2008 0          17.33     
Lake_Washington_Level 11/02/2008 0          17.28     
Lake_Washington_Level 11/03/2008 0          17.31     
Lake_Washington_Level 11/04/2008 0          17.39     
Lake_Washington_Level 11/05/2008 0          17.28     
Lake_Washington_Level 11/06/2008 0          17.3      
Lake_Washington_Level 11/07/2008 0          17        
Lake_Washington_Level 11/08/2008 0          16.995    
Lake_Washington_Level 11/09/2008 0          16.99     
Lake_Washington_Level 11/10/2008 0          16.985    
Lake_Washington_Level 11/11/2008 0          16.98     
Lake_Washington_Level 11/12/2008 0          16.99     
Lake_Washington_Level 11/13/2008 0          17        
Lake_Washington_Level 11/14/2008 0          17.01     
Lake_Washington_Level 11/15/2008 0          16.98     
Lake_Washington_Level 11/16/2008 0          17.02     
Lake_Washington_Level 11/17/2008 0          17.01     
Lake_Washington_Level 11/18/2008 0          17        
Lake_Washington_Level 11/19/2008 0          17        
Lake_Washington_Level 11/20/2008 0          16.99     
Lake_Washington_Level 11/21/2008 0          16.98     
Lake_Washington_Level 11/22/2008 0          16.98     
Lake_Washington_Level 11/23/2008 0          16.97     
Lake_Washington_Level 11/24/2008 0          16.99     
Lake_Washington_Level 11/25/2008 0          16.99     
Lake_Washington_Level 11/26/2008 0          16.97     
Lake_Washington_Level 11/27/2008 0          16.94     
Lake_Washington_Level 11/28/2008 0          16.9      
Lake_Washington_Level 11/29/2008 0          16.8      
Lake_Washington_Level 11/30/2008 0          16.81     
Lake_Washington_Level 12/01/2008 0          16.74     
Lake_Washington_Level 12/02/2008 0          16.8      
Lake_Washington_Level 12/03/2008 0          16.76     
Lake_Washington_Level 12/04/2008 0          16.75     
Lake_Washington_Level 12/05/2008 0          16.77     
Lake_Washington_Level 12/06/2008 0          16.76     
Lake_Washington_Level 12/07/2008 0          16.73     
Lake_Washington_Level 12/08/2008 0          16.75     
Lake_Washington_Level 12/09/2008 0          16.74     
Lake_Washington_Level 12/10/2008 0          16.74     
Lake_Washington_Level 12/11/2008 0          16.765    
Lake_Washington_Level 12/12/2008 0          16.79     
Lake_Washington_Level 12/13/2008 0          16.74     
Lake_Washington_Level 12/14/2008 0          16.78     
Lake_Washington_Level 12/15/2008 0          16.74     
Lake_Washington_Level 12/16/2008 0          16.735    
Lake_Washington_Level 12/17/2008 0          16.73     
Lake_Washington_Level 12/18/2008 0          16.72     
Lake_Washington_Level 12/19/2008 0          16.71     
Lake_Washington_Level 12/20/2008 0          16.71     
Lake_Washington_Level 12/21/2008 0          16.77     
Lake_Washington_Level 12/22/2008 0          16.74     
Lake_Washington_Level 12/23/2008 0          16.76     
Lake_Washington_Level 12/24/2008 0          16.77     
Lake_Washington_Level 12/25/2008 0          16.74     
Lake_Washington_Level 12/26/2008 0          16.73     
Lake_Washington_Level 12/27/2008 0          16.75     
Lake_Washington_Level 12/28/2008 0          16.79     
Lake_Washington_Level 12/29/2008 0          16.75     
Lake_Washington_Level 12/30/2008 0          16.76     
Lake_Washington_Level 12/31/2008 0          16.76     
Lake_Washington_Level 01/01/2009 0          16.74     
Lake_Washington_Level 01/02/2009 0          16.74     
Lake_Washington_Level 01/03/2009 0          16.77     
Lake_Washington_Level 01/04/2009 0          16.76     
Lake_Washington_Level 01/05/2009 0          16.76     
Lake_Washington_Level 01/06/2009 0          16.74     
Lake_Washington_Level 01/07/2009 0          16.75     
Lake_Washington_Level 01/08/2009 0          16.86     
Lake_Washington_Level 01/09/2009 0          17.08     

[PATTERNS]
;;Name           Type       Multipliers
;;-------------- ---------- -----------
1_007-308_W      HOURLY     0.788 0.686 0.649 0.64  0.624 0.655
1_007-308_W                 0.823 1.098 1.32  1.381 1.314 1.195
1_007-308_W                 1.135 1.088 1.014 0.944 0.938 0.977
1_007-308_W                 1.09  1.188 1.193 1.125 1.088 1.041
;
1_007-308_WE     WEEKEND    0.768 0.683 0.635 0.613 0.593 0.597
1_007-308_WE                0.631 0.806 1.149 1.451 1.501 1.374
1_007-308_WE                1.191 1.083 1.117 1.133 1.071 1.2  
1_007-308_WE                1.232 1.135 1.061 1.035 0.987 0.954
;
2_017-002_W      HOURLY     0.913 0.844 0.799 0.793 0.781 0.818
2_017-002_W                 0.942 1.112 1.207 1.19  1.132 1.085
2_017-002_W                 1.044 1.027 1.026 1.003 0.971 0.993
2_017-002_W                 1.039 1.099 1.112 1.071 1.032 0.992
;
2_017-002_WE     WEEKEND    0.931 0.846 0.783 0.767 0.784 0.785
2_017-002_WE                0.804 0.914 1.063 1.171 1.219 1.221
2_017-002_WE                1.146 1.104 1.084 1.062 1.044 1.056
2_017-002_WE                1.065 1.104 1.103 1.058 0.993 0.939
;
3_016-296_W      HOURLY     0.813 0.677 0.6   0.56  0.551 0.643
3_016-296_W                 0.859 1.295 1.54  1.453 1.303 1.119
3_016-296_W                 1.011 0.967 0.915 0.916 0.97  1.004
3_016-296_W                 1.058 1.176 1.24  1.181 1.16  1.049
;
3_016-296_WE     WEEKEND    0.781 0.631 0.558 0.529 0.506 0.517
3_016-296_WE                0.557 0.766 1.1   1.475 1.583 1.457
3_016-296_WE                1.299 1.162 1.107 1.092 1.089 1.17 
3_016-296_WE                1.225 1.225 1.199 1.054 1.011 0.946
;
4_017-105_W      HOURLY     0.892 0.846 0.846 0.823 0.812 0.869
4_017-105_W                 0.96  1.074 1.166 1.177 1.166 1.143
4_017-105_W                 1.143 1.097 1.029 0.983 0.96  0.96 
4_017-105_W                 1.006 1.029 1.029 1.052 1.029 0.937
;
4_017-105_WE     WEEKEND    0.958 0.893 0.871 0.871 0.871 0.871
4_017-105_WE                0.871 0.958 1.089 1.198 1.198 1.154
4_017-105_WE                1.067 1.002 1.002 0.98  0.98  1.002
4_017-105_WE                1.045 1.056 1.035 1.024 1.002 0.991
;
5_017-062_W      HOURLY     0.849 0.746 0.725 0.704 0.683 0.683
5_017-062_W                 0.828 1.118 1.305 1.305 1.201 1.139
5_017-062_W                 1.056 1.035 1.035 0.994 0.953 0.994
5_017-062_W                 1.056 1.16  1.201 1.16  1.092 1.015
;
5_017-062_WE     WEEKEND    0.879 0.795 0.742 0.71  0.7   0.7  
5_017-062_WE                0.7   0.732 0.986 1.22  1.326 1.358
5_017-062_WE                1.273 1.167 1.103 1.06  1.06  1.071
5_017-062_WE                1.103 1.124 1.145 1.114 1.008 0.954
;
6_017-248_W      HOURLY     0.926 0.818 0.773 0.767 0.773 0.841
6_017-248_W                 0.943 1.059 1.15  1.137 1.146 1.168
6_017-248_W                 1.129 1.131 1.106 1.021 0.984 1.023
6_017-248_W                 1.098 1.092 1.053 1.032 0.988 0.909
;
6_017-248_WE     WEEKEND    0.907 0.841 0.818 0.807 0.809 0.807
6_017-248_WE                0.827 0.898 1.018 1.165 1.225 1.218
6_017-248_WE                1.143 1.125 1.121 1.063 1.029 1.021
6_017-248_WE                1.058 1.076 1.07  1.02  0.985 0.983
;
7_017-139_W      HOURLY     0.961 0.867 0.789 0.765 0.736 0.709
7_017-139_W                 0.72  0.845 1.079 1.293 1.292 1.252
7_017-139_W                 1.192 1.162 1.104 1.03  0.941 0.907
7_017-139_W                 0.991 1.079 1.114 1.078 1.044 1.038
;
7_017-139_WE     WEEKEND    1.04  0.895 0.762 0.703 0.705 0.772
7_017-139_WE                0.813 0.82  0.879 1.044 1.248 1.356
7_017-139_WE                1.37  1.296 1.145 0.991 1.034 1.105
7_017-139_WE                1.17  1.119 1.002 0.926 0.945 0.945
;
8_025-300_W      HOURLY     0.533 0.572 0.606 0.596 0.547 0.562
8_025-300_W                 0.838 1.4   1.662 1.429 1.201 1.167
8_025-300_W                 1.104 0.993 0.945 0.92  0.945 1.071
8_025-300_W                 1.114 1.211 1.163 1.158 1.182 0.986
;
8_025-300_WE     WEEKEND    0.732 0.537 0.491 0.537 0.565 0.551
8_025-300_WE                0.667 0.95  1.302 1.385 1.436 1.506
8_025-300_WE                1.413 1.163 1.089 1.14  1.191 1.14 
8_025-300_WE                1.038 1.024 1.07  1.14  1.047 0.902
;
9_025-130_W      HOURLY     0.887 0.842 0.812 0.798 0.795 0.843
9_025-130_W                 1.007 1.163 1.207 1.17  1.152 1.112
9_025-130_W                 1.052 1.014 1.014 0.992 0.959 0.998
9_025-130_W                 1.081 1.111 1.071 1.032 1     0.94 
;
9_025-130_WE     WEEKEND    0.853 0.794 0.747 0.731 0.73  0.763
9_025-130_WE                0.826 0.944 1.106 1.256 1.274 1.19 
9_025-130_WE                1.124 1.073 1.059 1.069 1.121 1.165
9_025-130_WE                1.164 1.103 1.05  1.006 0.964 0.939
;
10_025-366_W     HOURLY     0.878 0.813 0.781 0.763 0.755 0.807
10_025-366_W                0.992 1.196 1.243 1.165 1.134 1.1  
10_025-366_W                1.063 1.025 1.008 0.998 0.977 0.999
10_025-366_W                1.068 1.131 1.121 1.074 1.021 0.943
;
10_025-366_WE    WEEKEND    0.878 0.828 0.802 0.798 0.808 0.806
10_025-366_WE               0.853 0.967 1.094 1.175 1.218 1.207
10_025-366_WE               1.136 1.096 1.05  1.027 1.004 1.029
10_025-366_WE               1.081 1.092 1.076 1.025 1     0.984
;
11_025-079_W     HOURLY     0.671 0.547 0.513 0.524 0.55  0.637
11_025-079_W                0.955 1.414 1.835 1.737 1.373 1.27 
11_025-079_W                1.195 0.957 0.738 0.787 0.831 0.932
11_025-079_W                1.254 1.396 1.295 1.102 0.937 0.676
;
11_025-079_WE    WEEKEND    0.613 0.523 0.53  0.519 0.539 0.553
11_025-079_WE               0.555 0.762 1.22  1.46  1.499 1.431
11_025-079_WE               1.265 1.175 1.076 1.105 1.18  1.283
11_025-079_WE               1.409 1.263 1.233 1.269 1     0.66 
;
12_025-200_W     HOURLY     0.65  0.536 0.45  0.478 0.486 0.492
12_025-200_W                0.889 1.479 1.733 1.61  1.498 1.252
12_025-200_W                1.108 0.997 0.91  0.901 0.908 0.927
12_025-200_W                1.105 1.213 1.213 1.303 1.129 0.877
;
12_025-200_WE    WEEKEND    0.725 0.62  0.502 0.465 0.481 0.505
12_025-200_WE               0.655 0.993 1.389 1.549 1.517 1.401
12_025-200_WE               1.224 1.08  0.999 1.103 1.211 1.232
12_025-200_WE               1.168 1.182 1.181 1.165 1.029 0.803
;
GA               MONTHLY    .1    1     10    .1    2     2    
GA                          1.0   1.0   1.0   1.0   1.0   1.0  

[REPORT]
;;Reporting Options
INPUT      NO
CONTROLS   NO
SUBCATCHMENTS ALL
NODES ALL
LINKS ALL

[TAGS]

[MAP]
DIMENSIONS 1284270.671 252345.278 1286895.051 254742.566
Units      None

[COORDINATES]
;;Node           X-Coord            Y-Coord           
;;-------------- ------------------ ------------------
007-308          1286533.765        252459.576        
007-309          1286370.200        252496.700        
007-310          1286303.747        252641.804        
007-311          1286390.243        252998.310        
007-312          1286163.529        253203.175        
007-313          1285992.888        253381.451        
007-314          1286041.318        253585.462        
007-315          1285941.600        253790.300        
007-316          1285882.400        254018.900        
007-317          1285799.014        254308.461        
007-318          1285587.400        254536.300        
007-319          1285264.713        254624.336        
007-320          1284955.409        254543.822        
007-321          1284735.921        254306.668        
007-322          1284691.600        254055.000        
007-323          1284704.900        253781.700        
007-324          1284704.000        253533.800        
007-325          1284689.700        253242.900        
007-326          1284699.745        253028.670        
007-327          1284800.558        252848.441        
007-328          1284808.027        252621.332        
007-329          1285166.193        252614.089        
007-330          1285185.800        252780.900        
007-331          1285015.189        252671.593        
007-332          1285121.512        253097.575        
007-333          1285120.600        253405.731        
007-334          1285120.105        253775.654        
007-335          1285118.643        254136.223        
007-336          1285021.641        254135.727        
007-337          1284772.142        254283.744        
007-338          1285412.200        252938.200        
007-339          1285410.806        253288.947        
007-340          1285410.630        253713.834        
007-341          1285408.700        253895.900        
007-342          1285408.403        254135.859        
007-343          1285519.307        254136.527        
007-344          1285540.189        254190.176        
007-345          1285849.157        254011.108        
007-346          1285849.861        253617.724        
007-347          1285864.289        253136.811        
007-348          1285796.376        252926.893        
007-349          1285575.379        252698.640        
007-351          1285703.746        252601.534        
007-352          1285375.875        252607.698        
007-307          1286775.278        252460.472        

[VERTICES]
;;Link           X-Coord            Y-Coord           
;;-------------- ------------------ ------------------

[Polygons]
;;Subcatchment   X-Coord            Y-Coord           
;;-------------- ------------------ ------------------
S007-311         1286327.235        252699.898        
S007-311         1286302.704        252704.358        
S007-311         1286178.423        252706.795        
S007-311         1286122.375        252699.484        
S007-311         1285868.938        252611.756        
S007-311         1285773.243        252576.391        
S007-311         1285753.469        252575.434        
S007-311         1285723.667        252575.103        
S007-311         1285712.408        252574.978        
S007-311         1285712.408        252608.288        
S007-311         1285740.412        252765.813        
S007-311         1285806.923        252919.838        
S007-311         1285859.431        253087.865        
S007-311         1285862.932        253157.876        
S007-311         1285862.932        253322.403        
S007-311         1285852.430        253616.450        
S007-311         1285855.931        253759.973        
S007-311         1285866.433        253998.012        
S007-311         1285855.311        254125.916        
S007-311         1285870.958        254081.735        
S007-311         1285902.911        253940.700        
S007-311         1285933.762        253848.146        
S007-311         1286013.094        253676.260        
S007-311         1286052.760        253588.113        
S007-311         1286043.946        253526.411        
S007-311         1286002.076        253398.598        
S007-311         1286008.687        253365.543        
S007-311         1286072.593        253314.859        
S007-311         1286328.219        253065.844        
S007-311         1286385.514        253023.974        
S007-311         1286396.533        252982.105        
S007-311         1286387.718        252920.402        
S007-311         1286352.459        252788.182        
S007-311         1286327.235        252699.898        
S007-316         1285265.092        254633.598        
S007-316         1285320.387        254631.670        
S007-316         1285477.913        254596.664        
S007-316         1285565.427        254558.158        
S007-316         1285626.687        254519.652        
S007-316         1285731.703        254418.136        
S007-316         1285822.718        254278.113        
S007-316         1285861.224        254166.095        
S007-316         1285864.105        254132.973        
S007-316         1285875.227        254005.069        
S007-316         1285864.725        253767.030        
S007-316         1285861.224        253623.507        
S007-316         1285805.884        253617.020        
S007-316         1285545.600        253617.040        
S007-316         1285545.972        253649.728        
S007-316         1285545.518        253756.954        
S007-316         1285553.696        253854.185        
S007-316         1285561.874        253914.159        
S007-316         1285565.055        254008.663        
S007-316         1285562.328        254062.276        
S007-316         1285548.698        254116.798        
S007-316         1285529.161        254167.684        
S007-316         1285482.818        254224.932        
S007-316         1285434.657        254270.367        
S007-316         1285360.144        254301.263        
S007-316         1285298.353        254313.076        
S007-316         1285266.040        254316.569        
S007-316         1285265.092        254633.598        
S007-322         1284626.817        253631.133        
S007-322         1284637.504        253723.752        
S007-322         1284619.693        253773.624        
S007-322         1284644.628        253830.620        
S007-322         1284651.753        253983.798        
S007-322         1284666.002        254136.975        
S007-322         1284687.376        254236.719        
S007-322         1284726.561        254322.213        
S007-322         1284731.855        254322.213        
S007-322         1284794.593        254401.142        
S007-322         1284865.000        254477.137        
S007-322         1284937.642        254543.074        
S007-322         1285043.812        254588.895        
S007-322         1285151.099        254621.304        
S007-322         1285246.711        254631.615        
S007-322         1285265.092        254633.598        
S007-322         1285266.040        254316.569        
S007-322         1285235.386        254315.539        
S007-322         1285187.500        254304.403        
S007-322         1285135.160        254286.585        
S007-322         1285089.501        254259.858        
S007-322         1285047.183        254223.108        
S007-322         1285018.229        254189.699        
S007-322         1284979.482        254133.413        
S007-322         1284968.795        254047.919        
S007-322         1284972.357        253969.549        
S007-322         1284983.044        253816.371        
S007-322         1284986.606        253652.507        
S007-322         1284986.107        253617.558        
S007-322         1284702.050        253617.355        
S007-322         1284626.817        253631.133        
S007-325         1284541.323        253591.948        
S007-325         1284626.817        253631.133        
S007-325         1284702.050        253617.355        
S007-325         1284986.107        253617.558        
S007-325         1284983.044        253403.148        
S007-325         1284975.919        253267.782        
S007-325         1284968.795        253185.850        
S007-325         1284979.482        253139.541        
S007-325         1284997.293        253078.982        
S007-325         1285054.289        253004.174        
S007-325         1285097.036        252972.114        
S007-325         1285146.908        252940.054        
S007-325         1285203.904        252922.242        
S007-325         1285266.560        252915.647        
S007-325         1285271.588        252915.118        
S007-325         1285271.588        252913.310        
S007-325         1285271.588        252637.261        
S007-325         1285270.993        252506.972        
S007-325         1285226.541        252507.318        
S007-325         1285146.688        252508.933        
S007-325         1285063.697        252510.612        
S007-325         1284980.705        252512.291        
S007-325         1284897.713        252513.970        
S007-325         1284774.831        252516.454        
S007-325         1284708.410        252518.024        
S007-325         1284588.234        252520.213        
S007-325         1284527.007        252521.446        
S007-325         1284486.393        252591.036        
S007-325         1284434.460        252844.254        
S007-325         1284427.042        252975.934        
S007-325         1284432.606        253126.161        
S007-325         1284404.786        253250.422        
S007-325         1284397.367        253328.318        
S007-325         1284389.961        253510.406        
S007-325         1284473.640        253545.639        
S007-325         1284541.323        253591.948        
S007-334         1285266.560        252915.647        
S007-334         1285203.904        252922.242        
S007-334         1285146.908        252940.053        
S007-334         1285097.036        252972.114        
S007-334         1285054.289        253004.174        
S007-334         1284997.293        253078.982        
S007-334         1284979.482        253139.540        
S007-334         1284968.795        253185.850        
S007-334         1284975.919        253267.782        
S007-334         1284983.044        253403.148        
S007-334         1284986.606        253652.507        
S007-334         1284983.044        253816.371        
S007-334         1284972.357        253969.549        
S007-334         1284968.795        254047.919        
S007-334         1284979.482        254133.413        
S007-334         1285018.229        254189.699        
S007-334         1285047.183        254223.108        
S007-334         1285089.501        254259.858        
S007-334         1285135.160        254286.585        
S007-334         1285187.500        254304.403        
S007-334         1285235.386        254315.539        
S007-334         1285266.040        254316.569        
S007-334         1285266.070        254306.707        
S007-334         1285266.070        254262.004        
S007-334         1285265.196        253600.191        
S007-334         1285268.689        253357.467        
S007-334         1285269.562        252940.123        
S007-334         1285269.562        252926.154        
S007-334         1285266.560        252915.647        
S007-341         1285271.588        252913.310        
S007-341         1285271.588        252915.118        
S007-341         1285266.560        252915.647        
S007-341         1285269.562        252926.154        
S007-341         1285269.562        252940.123        
S007-341         1285268.689        253357.467        
S007-341         1285265.196        253600.191        
S007-341         1285266.070        254262.004        
S007-341         1285266.070        254306.707        
S007-341         1285266.040        254316.569        
S007-341         1285298.353        254313.076        
S007-341         1285360.144        254301.263        
S007-341         1285434.657        254270.367        
S007-341         1285482.818        254224.932        
S007-341         1285529.161        254167.684        
S007-341         1285540.520        254137.698        
S007-341         1285548.698        254116.798        
S007-341         1285562.328        254062.276        
S007-341         1285565.055        254008.663        
S007-341         1285561.874        253914.159        
S007-341         1285553.696        253854.185        
S007-341         1285545.518        253756.954        
S007-341         1285545.972        253649.728        
S007-341         1285545.063        253569.763        
S007-341         1285553.696        253426.189        
S007-341         1285557.331        253357.129        
S007-341         1285568.235        253222.642        
S007-341         1285553.696        253132.681        
S007-341         1285528.252        253064.529        
S007-341         1285494.631        253022.729        
S007-341         1285443.744        252970.024        
S007-341         1285393.766        252941.855        
S007-341         1285295.626        252919.138        
S007-341         1285271.588        252913.310        
S007-347         1285545.063        253569.763        
S007-347         1285545.601        253617.040        
S007-347         1285805.884        253617.020        
S007-347         1285861.224        253623.507        
S007-347         1285871.726        253329.460        
S007-347         1285871.726        253164.933        
S007-347         1285868.226        253094.922        
S007-347         1285815.717        252926.895        
S007-347         1285749.206        252772.870        
S007-347         1285721.202        252615.345        
S007-347         1285721.202        252582.035        
S007-347         1285732.461        252582.160        
S007-347         1285731.519        252565.202        
S007-347         1285731.519        252464.932        
S007-347         1285638.860        252467.711        
S007-347         1285323.414        252477.175        
S007-347         1285323.966        252505.581        
S007-347         1285270.993        252506.972        
S007-347         1285271.176        252547.042        
S007-347         1285271.588        252637.261        
S007-347         1285271.588        252913.310        
S007-347         1285295.627        252919.138        
S007-347         1285393.766        252941.855        
S007-347         1285443.744        252970.024        
S007-347         1285494.631        253022.729        
S007-347         1285528.253        253064.529        
S007-347         1285553.696        253132.681        
S007-347         1285568.235        253222.642        
S007-347         1285557.331        253357.128        
S007-347         1285553.696        253426.189        
S007-347         1285545.063        253569.763        

[SYMBOLS]
;;Gage           X-Coord            Y-Coord           
;;-------------- ------------------ ------------------

[LABELS]
;;X-Coord          Y-Coord            Label           
1286616.497        252591.234         "007-309.1 Calibration Link" "" "Arial" 10 0 0

